2
Frame 0   E = -7.94366041 Ha
LI  0.000000 -0.000007  0.001498
H  -0.000000  0.000050  1.511362
2
Frame 1   E = -7.94393430 Ha
LI  0.000000 -0.000028  0.002863
H  -0.000000  0.000197  1.523650
2
Frame 2   E = -7.94418410 Ha
LI  0.000000 -0.000063  0.004115
H  -0.000000  0.000437  1.536730
2
Frame 3   E = -7.94439814 Ha
LI  0.000000 -0.000110  0.005272
H  -0.000000  0.000767  1.550463
2
Frame 4   E = -7.94456743 Ha
LI  0.000000 -0.000170  0.006357
H  -0.000000  0.001184  1.564706
2
Frame 5   E = -7.94468581 Ha
LI  0.000000 -0.000242  0.007388
H  -0.000000  0.001683  1.579317
2
Frame 6   E = -7.94475004 Ha
LI  0.000000 -0.000325  0.008387
H  -0.000000  0.002261  1.594152
2
Frame 7   E = -7.94475960 Ha
LI  0.000000 -0.000418  0.009374
H  -0.000000  0.002912  1.609075
2
Frame 8   E = -7.94471646 Ha
LI  0.000000 -0.000522  0.010368
H  -0.000000  0.003632  1.623951
2
Frame 9   E = -7.94462468 Ha
LI  0.000000 -0.000635  0.011386
H  -0.000000  0.004418  1.638653
2
Frame 10   E = -7.94448999 Ha
LI  0.000000 -0.000756  0.012447
H  -0.000000  0.005264  1.653061
2
Frame 11   E = -7.94431941 Ha
LI  0.000000 -0.000886  0.013566
H  -0.000000  0.006165  1.667064
2
Frame 12   E = -7.94412085 Ha
LI  0.000000 -0.001023  0.014758
H  -0.000000  0.007118  1.680556
2
Frame 13   E = -7.94390266 Ha
LI  0.000000 -0.001166  0.016037
H  -0.000000  0.008118  1.693443
2
Frame 14   E = -7.94367341 Ha
LI  0.000000 -0.001316  0.017415
H  -0.000000  0.009160  1.705638
2
Frame 15   E = -7.94344150 Ha
LI  0.000000 -0.001471  0.018904
H  -0.000000  0.010241  1.717063
2
Frame 16   E = -7.94321498 Ha
LI  0.000000 -0.001631  0.020514
H  -0.000000  0.011355  1.727649
2
Frame 17   E = -7.94300135 Ha
LI  0.000000 -0.001796  0.022253
H  -0.000000  0.012501  1.737334
2
Frame 18   E = -7.94280740 Ha
LI  0.000000 -0.001964  0.024129
H  -0.000000  0.013673  1.746065
2
Frame 19   E = -7.94263906 Ha
LI  0.000000 -0.002136  0.026149
H  -0.000000  0.014869  1.753800
2
Frame 20   E = -7.94250135 Ha
LI  0.000000 -0.002311  0.028316
H  -0.000000  0.016087  1.760501
2
Frame 21   E = -7.94239829 Ha
LI  0.000000 -0.002488  0.030637
H  -0.000000  0.017322  1.766140
2
Frame 22   E = -7.94233285 Ha
LI  0.000000 -0.002668  0.033112
H  -0.000000  0.018574  1.770697
2
Frame 23   E = -7.94230694 Ha
LI  0.000000 -0.002850  0.035746
H  -0.000000  0.019841  1.774157
2
Frame 24   E = -7.94232134 Ha
LI  0.000000 -0.003034  0.038537
H  -0.000000  0.021121  1.776517
2
Frame 25   E = -7.94237577 Ha
LI  0.000000 -0.003219  0.041486
H  -0.000000  0.022413  1.777777
2
Frame 26   E = -7.94246880 Ha
LI  0.000000 -0.003407  0.044592
H  -0.000000  0.023716  1.777947
2
Frame 27   E = -7.94259793 Ha
LI  0.000000 -0.003596  0.047852
H  -0.000000  0.025032  1.777045
2
Frame 28   E = -7.94275960 Ha
LI  0.000000 -0.003786  0.051262
H  -0.000000  0.026360  1.775096
2
Frame 29   E = -7.94294921 Ha
LI  0.000000 -0.003979  0.054818
H  -0.000000  0.027701  1.772132
2
Frame 30   E = -7.94316120 Ha
LI  0.000000 -0.004174  0.058514
H  -0.000000  0.029057  1.768195
2
Frame 31   E = -7.94338912 Ha
LI  0.000000 -0.004371  0.062343
H  -0.000000  0.030429  1.763333
2
Frame 32   E = -7.94362573 Ha
LI  0.000000 -0.004571  0.066296
H  -0.000000  0.031821  1.757604
2
Frame 33   E = -7.94386317 Ha
LI  0.000000 -0.004774  0.070365
H  -0.000000  0.033235  1.751073
2
Frame 34   E = -7.94409310 Ha
LI  0.000000 -0.004981  0.074538
H  -0.000000  0.034675  1.743815
2
Frame 35   E = -7.94430694 Ha
LI  0.000000 -0.005192  0.078803
H  -0.000000  0.036146  1.735913
2
Frame 36   E = -7.94449618 Ha
LI  0.000000 -0.005409  0.083148
H  -0.000000  0.037652  1.727459
2
Frame 37   E = -7.94465262 Ha
LI  0.000000 -0.005631  0.087557
H  -0.000000  0.039198  1.718554
2
Frame 38   E = -7.94476879 Ha
LI  0.000000 -0.005860  0.092016
H  -0.000000  0.040792  1.709307
2
Frame 39   E = -7.94483834 Ha
LI  0.000000 -0.006096  0.096507
H  -0.000000  0.042439  1.699834
2
Frame 40   E = -7.94485644 Ha
LI  0.000000 -0.006342  0.101012
H  -0.000000  0.044147  1.690262
2
Frame 41   E = -7.94482024 Ha
LI  0.000000 -0.006597  0.105513
H  -0.000000  0.045925  1.680720
2
Frame 42   E = -7.94472924 Ha
LI  0.000000 -0.006863  0.109990
H  -0.000000  0.047780  1.671346
2
Frame 43   E = -7.94458562 Ha
LI  0.000000 -0.007142  0.114422
H  -0.000000  0.049721  1.662282
2
Frame 44   E = -7.94439444 Ha
LI  0.000000 -0.007435  0.118790
H  -0.000000  0.051759  1.653669
2
Frame 45   E = -7.94416371 Ha
LI  0.000000 -0.007743  0.123072
H  -0.000000  0.053904  1.645652
2
Frame 46   E = -7.94390423 Ha
LI  0.000000 -0.008068  0.127248
H  -0.000000  0.056165  1.638372
2
Frame 47   E = -7.94362919 Ha
LI  0.000000 -0.008411  0.131299
H  -0.000000  0.058554  1.631964
2
Frame 48   E = -7.94335354 Ha
LI  0.000000 -0.008774  0.135205
H  -0.000000  0.061080  1.626557
2
Frame 49   E = -7.94309314 Ha
LI  0.000000 -0.009158  0.138952
H  -0.000000  0.063754  1.622269
2
Frame 50   E = -7.94286371 Ha
LI  0.000000 -0.009565  0.142523
H  -0.000000  0.066586  1.619202
2
Frame 51   E = -7.94267968 Ha
LI  0.000000 -0.009996  0.145906
H  -0.000000  0.069585  1.617443
2
Frame 52   E = -7.94255308 Ha
LI  0.000000 -0.010452  0.149091
H  -0.000000  0.072759  1.617059
2
Frame 53   E = -7.94249253 Ha
LI  0.000000 -0.010934  0.152072
H  -0.000000  0.076115  1.618095
2
Frame 54   E = -7.94250250 Ha
LI  0.000000 -0.011443  0.154847
H  -0.000000  0.079658  1.620576
2
Frame 55   E = -7.94258293 Ha
LI  0.000000 -0.011979  0.157413
H  -0.000000  0.083392  1.624499
2
Frame 56   E = -7.94272920 Ha
LI  0.000000 -0.012543  0.159776
H  -0.000000  0.087318  1.629840
2
Frame 57   E = -7.94293252 Ha
LI  0.000000 -0.013135  0.161942
H  -0.000000  0.091437  1.636552
2
Frame 58   E = -7.94318071 Ha
LI  0.000000 -0.013753  0.163922
H  -0.000000  0.095744  1.644566
2
Frame 59   E = -7.94345914 Ha
LI  0.000000 -0.014399  0.165726
H  -0.000000  0.100236  1.653795
2
Frame 60   E = -7.94375191 Ha
LI  0.000000 -0.015069  0.167372
H  -0.000000  0.104904  1.664132
2
Frame 61   E = -7.94404297 Ha
LI  0.000000 -0.015764  0.168875
H  -0.000000  0.109740  1.675460
2
Frame 62   E = -7.94431718 Ha
LI  0.000000 -0.016481  0.170254
H  -0.000000  0.114733  1.687648
2
Frame 63   E = -7.94456120 Ha
LI  0.000000 -0.017219  0.171530
H  -0.000000  0.119868  1.700558
2
Frame 64   E = -7.94476411 Ha
LI  0.000000 -0.017975  0.172723
H  -0.000000  0.125131  1.714048
2
Frame 65   E = -7.94491784 Ha
LI  0.000000 -0.018747  0.173853
H  -0.000000  0.130507  1.727974
2
Frame 66   E = -7.94501730 Ha
LI  0.000000 -0.019533  0.174941
H  -0.000000  0.135979  1.742189
2
Frame 67   E = -7.94506037 Ha
LI  0.000000 -0.020330  0.176008
H  -0.000000  0.141527  1.756553
2
Frame 68   E = -7.94504763 Ha
LI  0.000000 -0.021135  0.177073
H  -0.000000  0.147135  1.770927
2
Frame 69   E = -7.94498213 Ha
LI  0.000000 -0.021947  0.178157
H  -0.000000  0.152783  1.785178
2
Frame 70   E = -7.94486887 Ha
LI  0.000000 -0.022761  0.179275
H  -0.000000  0.158452  1.799181
2
Frame 71   E = -7.94471449 Ha
LI  0.000000 -0.023576  0.180447
H  -0.000000  0.164125  1.812817
2
Frame 72   E = -7.94452675 Ha
LI  0.000000 -0.024389  0.181687
H  -0.000000  0.169783  1.825978
2
Frame 73   E = -7.94431415 Ha
LI  0.000000 -0.025197  0.183010
H  -0.000000  0.175408  1.838561
2
Frame 74   E = -7.94408556 Ha
LI  0.000000 -0.025998  0.184429
H  -0.000000  0.180984  1.850473
2
Frame 75   E = -7.94384989 Ha
LI  0.000000 -0.026789  0.185956
H  -0.000000  0.186493  1.861633
2
Frame 76   E = -7.94361580 Ha
LI  0.000000 -0.027569  0.187602
H  -0.000000  0.191922  1.871964
2
Frame 77   E = -7.94339148 Ha
LI  0.000000 -0.028335  0.189377
H  -0.000000  0.197255  1.881401
2
Frame 78   E = -7.94318446 Ha
LI  0.000000 -0.029086  0.191288
H  -0.000000  0.202480  1.889886
2
Frame 79   E = -7.94300144 Ha
LI  0.000000 -0.029819  0.193343
H  -0.000000  0.207584  1.897372
2
Frame 80   E = -7.94284820 Ha
LI  0.000000 -0.030533  0.195548
H  -0.000000  0.212557  1.903817
2
Frame 81   E = -7.94272948 Ha
LI  0.000000 -0.031227  0.197906
H  -0.000000  0.217388  1.909189
2
Frame 82   E = -7.94264896 Ha
LI  0.000000 -0.031900  0.200423
H  -0.000000  0.222070  1.913465
2
Frame 83   E = -7.94260916 Ha
LI  0.000000 -0.032550  0.203099
H  -0.000000  0.226597  1.916627
2
Frame 84   E = -7.94261145 Ha
LI  0.000000 -0.033177  0.205936
H  -0.000000  0.230961  1.918668
2
Frame 85   E = -7.94265601 Ha
LI  0.000000 -0.033780  0.208934
H  -0.000000  0.235161  1.919586
2
Frame 86   E = -7.94274183 Ha
LI  0.000000 -0.034359  0.212093
H  -0.000000  0.239193  1.919389
2
Frame 87   E = -7.94286672 Ha
LI  0.000000 -0.034914  0.215409
H  -0.000000  0.243057  1.918092
2
Frame 88   E = -7.94302733 Ha
LI  0.000000 -0.035445  0.218881
H  -0.000000  0.246754  1.915717
2
Frame 89   E = -7.94321917 Ha
LI  0.000000 -0.035953  0.222503
H  -0.000000  0.250287  1.912296
2
Frame 90   E = -7.94343668 Ha
LI  0.000000 -0.036437  0.226269
H  -0.000000  0.253660  1.907867
2
Frame 91   E = -7.94367331 Ha
LI  0.000000 -0.036900  0.230173
H  -0.000000  0.256881  1.902479
2
Frame 92   E = -7.94392163 Ha
LI  0.000000 -0.037342  0.234208
H  -0.000000  0.259959  1.896187
2
Frame 93   E = -7.94417344 Ha
LI  0.000000 -0.037765  0.238362
H  -0.000000  0.262904  1.889055
2
Frame 94   E = -7.94442001 Ha
LI  0.000000 -0.038171  0.242627
H  -0.000000  0.265729  1.881158
2
Frame 95   E = -7.94465225 Ha
LI  0.000000 -0.038562  0.246990
H  -0.000000  0.268451  1.872577
2
Frame 96   E = -7.94486105 Ha
LI  0.000000 -0.038941  0.251438
H  -0.000000  0.271088  1.863404
2
Frame 97   E = -7.94503758 Ha
LI  0.000000 -0.039310  0.255957
H  -0.000000  0.273659  1.853739
2
Frame 98   E = -7.94517368 Ha
LI  0.000000 -0.039674  0.260530
H  -0.000000  0.276189  1.843691
2
Frame 99   E = -7.94526231 Ha
LI  0.000000 -0.040035  0.265142
H  -0.000000  0.278702  1.833376
2
Frame 100   E = -7.94529798 Ha
LI  0.000000 -0.040397  0.269774
H  -0.000000  0.281227  1.822921
2
Frame 101   E = -7.94527724 Ha
LI  0.000000 -0.040766  0.274408
H  -0.000000  0.283794  1.812455
2
Frame 102   E = -7.94519912 Ha
LI  0.000000 -0.041145  0.279023
H  -0.000000  0.286435  1.802118
2
Frame 103   E = -7.94506545 Ha
LI  0.000000 -0.041541  0.283600
H  -0.000000  0.289186  1.792049
2
Frame 104   E = -7.94488117 Ha
LI  0.000000 -0.041957  0.288117
H  -0.000000  0.292083  1.782393
2
Frame 105   E = -7.94465438 Ha
LI  0.000000 -0.042399  0.292555
H  -0.000000  0.295163  1.773293
2
Frame 106   E = -7.94439618 Ha
LI  0.000000 -0.042873  0.296892
H  -0.000000  0.298464  1.764892
2
Frame 107   E = -7.94412030 Ha
LI  0.000000 -0.043385  0.301109
H  -0.000000  0.302023  1.757326
2
Frame 108   E = -7.94384240 Ha
LI  0.000000 -0.043938  0.305188
H  -0.000000  0.305878  1.750723
2
Frame 109   E = -7.94357919 Ha
LI  0.000000 -0.044540  0.309111
H  -0.000000  0.310064  1.745200
2
Frame 110   E = -7.94334724 Ha
LI  0.000000 -0.045193  0.312865
H  -0.000000  0.314613  1.740860
2
Frame 111   E = -7.94316180 Ha
LI  0.000000 -0.045903  0.316437
H  -0.000000  0.319554  1.737788
2
Frame 112   E = -7.94303552 Ha
LI  0.000000 -0.046672  0.319817
H  -0.000000  0.324911  1.736050
2
Frame 113   E = -7.94297742 Ha
LI  0.000000 -0.047504  0.322999
H  -0.000000  0.330704  1.735690
2
Frame 114   E = -7.94299204 Ha
LI  0.000000 -0.048401  0.325980
H  -0.000000  0.336943  1.736728
2
Frame 115   E = -7.94307907 Ha
LI  0.000000 -0.049362  0.328761
H  -0.000000  0.343637  1.739160
2
Frame 116   E = -7.94323330 Ha
LI  0.000000 -0.050389  0.331346
H  -0.000000  0.350782  1.742958
2
Frame 117   E = -7.94344512 Ha
LI  0.000000 -0.051479  0.333741
H  -0.000000  0.358372  1.748074
2
Frame 118   E = -7.94370131 Ha
LI  0.000000 -0.052630  0.335958
H  -0.000000  0.366389  1.754433
2
Frame 119   E = -7.94398621 Ha
LI  0.000000 -0.053840  0.338009
H  -0.000000  0.374811  1.761946
2
Frame 120   E = -7.94428286 Ha
LI  0.000000 -0.055104  0.339910
H  -0.000000  0.383610  1.770505
2
Frame 121   E = -7.94457436 Ha
LI  0.000000 -0.056417  0.341678
H  -0.000000  0.392750  1.779990
2
Frame 122   E = -7.94484490 Ha
LI  0.000000 -0.057774  0.343332
H  -0.000000  0.402193  1.790268
2
Frame 123   E = -7.94508076 Ha
LI  0.000000 -0.059167  0.344891
H  -0.000000  0.411894  1.801203
2
Frame 124   E = -7.94527096 Ha
LI  0.000000 -0.060591  0.346377
H  -0.000000  0.421808  1.812651
2
Frame 125   E = -7.94540762 Ha
LI  0.000000 -0.062039  0.347810
H  -0.000000  0.431885  1.824468
2
Frame 126   E = -7.94548612 Ha
LI  0.000000 -0.063503  0.349210
H  -0.000000  0.442075  1.836513
2
Frame 127   E = -7.94550502 Ha
LI  0.000000 -0.064975  0.350597
H  -0.000000  0.452327  1.848645
2
Frame 128   E = -7.94546576 Ha
LI  0.000000 -0.066450  0.351992
H  -0.000000  0.462592  1.860730
2
Frame 129   E = -7.94537233 Ha
LI  0.000000 -0.067919  0.353411
H  -0.000000  0.472820  1.872640
2
Frame 130   E = -7.94523076 Ha
LI  0.000000 -0.069376  0.354874
H  -0.000000  0.482961  1.884252
2
Frame 131   E = -7.94504868 Ha
LI  0.000000 -0.070814  0.356395
H  -0.000000  0.492971  1.895454
2
Frame 132   E = -7.94483483 Ha
LI  0.000000 -0.072226  0.357990
H  -0.000000  0.502804  1.906142
2
Frame 133   E = -7.94459865 Ha
LI  0.000000 -0.073607  0.359672
H  -0.000000  0.512419  1.916220
2
Frame 134   E = -7.94434981 Ha
LI  0.000000 -0.074952  0.361455
H  -0.000000  0.521777  1.925602
2
Frame 135   E = -7.94409790 Ha
LI  0.000000 -0.076254  0.363349
H  -0.000000  0.530842  1.934209
2
Frame 136   E = -7.94385217 Ha
LI  0.000000 -0.077509  0.365364
H  -0.000000  0.539580  1.941975
2
Frame 137   E = -7.94362121 Ha
LI  0.000000 -0.078713  0.367508
H  -0.000000  0.547961  1.948839
2
Frame 138   E = -7.94341280 Ha
LI  0.000000 -0.079862  0.369789
H  -0.000000  0.555960  1.954750
2
Frame 139   E = -7.94323377 Ha
LI  0.000000 -0.080952  0.372213
H  -0.000000  0.563552  1.959666
2
Frame 140   E = -7.94308981 Ha
LI  0.000000 -0.081982  0.374785
H  -0.000000  0.570717  1.963554
2
Frame 141   E = -7.94298546 Ha
LI  0.000000 -0.082947  0.377508
H  -0.000000  0.577438  1.966387
2
Frame 142   E = -7.94292401 Ha
LI  0.000000 -0.083847  0.380386
H  -0.000000  0.583702  1.968149
2
Frame 143   E = -7.94290745 Ha
LI  0.000000 -0.084680  0.383418
H  -0.000000  0.589500  1.968828
2
Frame 144   E = -7.94293643 Ha
LI  0.000000 -0.085444  0.386607
H  -0.000000  0.594824  1.968424
2
Frame 145   E = -7.94301028 Ha
LI  0.000000 -0.086141  0.389950
H  -0.000000  0.599672  1.966942
2
Frame 146   E = -7.94312701 Ha
LI  0.000000 -0.086769  0.393446
H  -0.000000  0.604046  1.964395
2
Frame 147   E = -7.94328329 Ha
LI  0.000000 -0.087330  0.397092
H  -0.000000  0.607950  1.960806
2
Frame 148   E = -7.94347453 Ha
LI  0.000000 -0.087825  0.400883
H  -0.000000  0.611393  1.956204
2
Frame 149   E = -7.94369492 Ha
LI  0.000000 -0.088255  0.404815
H  -0.000000  0.614389  1.950626
2
Frame 150   E = -7.94393751 Ha
LI  0.000000 -0.088623  0.408880
H  -0.000000  0.616954  1.944118
2
Frame 151   E = -7.94419434 Ha
LI  0.000000 -0.088933  0.413071
H  -0.000000  0.619111  1.936734
2
Frame 152   E = -7.94445660 Ha
LI  0.000000 -0.089188  0.417379
H  -0.000000  0.620885  1.928535
2
Frame 153   E = -7.94471481 Ha
LI  0.000000 -0.089393  0.421794
H  -0.000000  0.622309  1.919594
2
Frame 154   E = -7.94495911 Ha
LI  0.000000 -0.089552  0.426304
H  -0.000000  0.623419  1.909989
2
Frame 155   E = -7.94517956 Ha
LI  0.000000 -0.089672  0.430897
H  -0.000000  0.624254  1.899808
2
Frame 156   E = -7.94536650 Ha
LI  0.000000 -0.089759  0.435558
H  -0.000000  0.624863  1.889148
2
Frame 157   E = -7.94551100 Ha
LI  0.000000 -0.089822  0.440274
H  -0.000000  0.625296  1.878112
2
Frame 158   E = -7.94560533 Ha
LI  0.000000 -0.089867  0.445027
H  -0.000000  0.625610  1.866814
2
Frame 159   E = -7.94564348 Ha
LI  0.000000 -0.089903  0.449801
H  -0.000000  0.625866  1.855372
2
Frame 160   E = -7.94562168 Ha
LI  0.000000 -0.089941  0.454577
H  -0.000000  0.626130  1.843913
2
Frame 161   E = -7.94553886 Ha
LI  0.000000 -0.089990  0.459338
H  -0.000000  0.626471  1.832566
2
Frame 162   E = -7.94539710 Ha
LI  0.000000 -0.090061  0.464062
H  -0.000000  0.626964  1.821465
2
Frame 163   E = -7.94520184 Ha
LI  0.000000 -0.090165  0.468732
H  -0.000000  0.627684  1.810746
2
Frame 164   E = -7.94496197 Ha
LI  0.000000 -0.090312  0.473328
H  -0.000000  0.628708  1.800545
2
Frame 165   E = -7.94468967 Ha
LI  0.000000 -0.090514  0.477831
H  -0.000000  0.630113  1.790994
2
Frame 166   E = -7.94439990 Ha
LI  0.000000 -0.090781  0.482221
H  -0.000000  0.631976  1.782218
2
Frame 167   E = -7.94410964 Ha
LI  0.000000 -0.091125  0.486484
H  -0.000000  0.634368  1.774336
2
Frame 168   E = -7.94383682 Ha
LI  0.000000 -0.091554  0.490603
H  -0.000000  0.637358  1.767453
2
Frame 169   E = -7.94359907 Ha
LI  0.000000 -0.092078  0.494565
H  -0.000000  0.641006  1.761663
2
Frame 170   E = -7.94341232 Ha
LI  0.000000 -0.092704  0.498360
H  -0.000000  0.645365  1.757038
2
Frame 171   E = -7.94328947 Ha
LI  0.000000 -0.093439  0.501979
H  -0.000000  0.650476  1.753635
2
Frame 172   E = -7.94323926 Ha
LI  0.000000 -0.094285  0.505418
H  -0.000000  0.656368  1.751486
2
Frame 173   E = -7.94326546 Ha
LI  0.000000 -0.095246  0.508675
H  -0.000000  0.663058  1.750605
2
Frame 174   E = -7.94336652 Ha
LI  0.000000 -0.096322  0.511751
H  -0.000000  0.670550  1.750979
2
Frame 175   E = -7.94353567 Ha
LI  0.000000 -0.097512  0.514652
H  -0.000000  0.678831  1.752576
2
Frame 176   E = -7.94376158 Ha
LI  0.000000 -0.098811  0.517385
H  -0.000000  0.687877  1.755341
2
Frame 177   E = -7.94402934 Ha
LI  0.000000 -0.100215  0.519961
H  -0.000000  0.697649  1.759203
2
Frame 178   E = -7.94432173 Ha
LI  0.000000 -0.101716  0.522392
H  -0.000000  0.708096  1.764070
2
Frame 179   E = -7.94462062 Ha
LI  0.000000 -0.103305  0.524693
H  -0.000000  0.719157  1.769840
2
Frame 180   E = -7.94490830 Ha
LI  0.000000 -0.104972  0.526882
H  -0.000000  0.730762  1.776398
2
Frame 181   E = -7.94516866 Ha
LI  0.000000 -0.106705  0.528975
H  -0.000000  0.742833  1.783620
2
Frame 182   E = -7.94538813 Ha
LI  0.000000 -0.108494  0.530990
H  -0.000000  0.755285  1.791380
2
Frame 183   E = -7.94555625 Ha
LI  0.000000 -0.110325  0.532947
H  -0.000000  0.768033  1.799546
2
Frame 184   E = -7.94566606 Ha
LI  0.000000 -0.112186  0.534865
H  -0.000000  0.780985  1.807990
2
Frame 185   E = -7.94571410 Ha
LI  0.000000 -0.114063  0.536761
H  -0.000000  0.794054  1.816583
2
Frame 186   E = -7.94570021 Ha
LI  0.000000 -0.115944  0.538653
H  -0.000000  0.807150  1.825202
2
Frame 187   E = -7.94562721 Ha
LI  0.000000 -0.117817  0.540559
H  -0.000000  0.820186  1.833728
2
Frame 188   E = -7.94550044 Ha
LI  0.000000 -0.119669  0.542493
H  -0.000000  0.833078  1.842051
2
Frame 189   E = -7.94532722 Ha
LI  0.000000 -0.121489  0.544472
H  -0.000000  0.845747  1.850065
2
Frame 190   E = -7.94511634 Ha
LI  0.000000 -0.123266  0.546510
H  -0.000000  0.858117  1.857674
2
Frame 191   E = -7.94487754 Ha
LI  0.000000 -0.124989  0.548618
H  -0.000000  0.870117  1.864791
2
Frame 192   E = -7.94462103 Ha
LI  0.000000 -0.126651  0.550808
H  -0.000000  0.881682  1.871336
2
Frame 193   E = -7.94435713 Ha
LI  0.000000 -0.128241  0.553090
H  -0.000000  0.892753  1.877237
2
Frame 194   E = -7.94409585 Ha
LI  0.000000 -0.129752  0.555474
H  -0.000000  0.903275  1.882433
2
Frame 195   E = -7.94384662 Ha
LI  0.000000 -0.131178  0.557968
H  -0.000000  0.913199  1.886867
2
Frame 196   E = -7.94361809 Ha
LI  0.000000 -0.132512  0.560577
H  -0.000000  0.922483  1.890495
2
Frame 197   E = -7.94341789 Ha
LI  0.000000 -0.133748  0.563308
H  -0.000000  0.931089  1.893276
2
Frame 198   E = -7.94325249 Ha
LI  0.000000 -0.134882  0.566164
H  -0.000000  0.938987  1.895182
2
Frame 199   E = -7.94312714 Ha
LI  0.000000 -0.135911  0.569150
H  -0.000000  0.946150  1.896187
2
Frame 200   E = -7.94304573 Ha
LI  0.000000 -0.136832  0.572268
H  -0.000000  0.952559  1.896276
2
Frame 201   E = -7.94301078 Ha
LI  0.000000 -0.137642  0.575518
H  -0.000000  0.958200  1.895440
2
Frame 202   E = -7.94302338 Ha
LI  0.000000 -0.138341  0.578902
H  -0.000000  0.963064  1.893676
2
Frame 203   E = -7.94308319 Ha
LI  0.000000 -0.138928  0.582418
H  -0.000000  0.967149  1.890991
2
Frame 204   E = -7.94318844 Ha
LI  0.000000 -0.139403  0.586065
H  -0.000000  0.970457  1.887395
2
Frame 205   E = -7.94333594 Ha
LI  0.000000 -0.139768  0.589840
H  -0.000000  0.973000  1.882906
2
Frame 206   E = -7.94352114 Ha
LI  0.000000 -0.140026  0.593739
H  -0.000000  0.974792  1.877552
2
Frame 207   E = -7.94373817 Ha
LI  0.000000 -0.140178  0.597758
H  -0.000000  0.975855  1.871364
2
Frame 208   E = -7.94397995 Ha
LI  0.000000 -0.140230  0.601892
H  -0.000000  0.976218  1.864381
2
Frame 209   E = -7.94423830 Ha
LI  0.000000 -0.140187  0.606133
H  -0.000000  0.975916  1.856650
2
Frame 210   E = -7.94450413 Ha
LI  0.000000 -0.140054  0.610473
H  -0.000000  0.974991  1.848224
2
Frame 211   E = -7.94476760 Ha
LI  0.000000 -0.139839  0.614905
H  -0.000000  0.973494  1.839164
2
Frame 212   E = -7.94501845 Ha
LI  0.000000 -0.139550  0.619418
H  -0.000000  0.971479  1.829537
2
Frame 213   E = -7.94524628 Ha
LI  0.000000 -0.139195  0.624002
H  -0.000000  0.969013  1.819419
2
Frame 214   E = -7.94544097 Ha
LI  0.000000 -0.138786  0.628645
H  -0.000000  0.966165  1.808890
2
Frame 215   E = -7.94559311 Ha
LI  0.000000 -0.138334  0.633334
H  -0.000000  0.963016  1.798038
2
Frame 216   E = -7.94569451 Ha
LI  0.000000 -0.137851  0.638056
H  -0.000000  0.959651  1.786958
2
Frame 217   E = -7.94573870 Ha
LI  0.000000 -0.137350  0.642796
H  -0.000000  0.956165  1.775749
2
Frame 218   E = -7.94572154 Ha
LI  0.000000 -0.136846  0.647540
H  -0.000000  0.952655  1.764516
2
Frame 219   E = -7.94564167 Ha
LI  0.000000 -0.136353  0.652272
H  -0.000000  0.949228  1.753366
2
Frame 220   E = -7.94550092 Ha
LI  0.000000 -0.135889  0.656976
H  -0.000000  0.945993  1.742411
2
Frame 221   E = -7.94530466 Ha
LI  0.000000 -0.135468  0.661636
H  -0.000000  0.943063  1.731762
2
Frame 222   E = -7.94506182 Ha
LI  0.000000 -0.135107  0.666236
H  -0.000000  0.940552  1.721528
2
Frame 223   E = -7.94478474 Ha
LI  0.000000 -0.134823  0.670762
H  -0.000000  0.938573  1.711818
2
Frame 224   E = -7.94448865 Ha
LI  0.000000 -0.134631  0.675197
H  -0.000000  0.937237  1.702733
2
Frame 225   E = -7.94419092 Ha
LI  0.000000 -0.134546  0.679529
H  -0.000000  0.936649  1.694369
2
Frame 226   E = -7.94390992 Ha
LI  0.000000 -0.134583  0.683745
H  -0.000000  0.936906  1.686808
2
Frame 227   E = -7.94366375 Ha
LI  0.000000 -0.134754  0.687835
H  -0.000000  0.938094  1.680124
2
Frame 228   E = -7.94346880 Ha
LI  0.000000 -0.135069  0.691792
H  -0.000000  0.940286  1.674375
2
Frame 229   E = -7.94333836 Ha
LI  0.000000 -0.135536  0.695607
H  -0.000000  0.943539  1.669602
2
Frame 230   E = -7.94328148 Ha
LI  0.000000 -0.136162  0.699280
H  -0.000000  0.947893  1.665831
2
Frame 231   E = -7.94330210 Ha
LI  0.000000 -0.136948  0.702807
H  -0.000000  0.953366  1.663067
2
Frame 232   E = -7.94339870 Ha
LI  0.000000 -0.137895  0.706191
H  -0.000000  0.959960  1.661301
2
Frame 233   E = -7.94356446 Ha
LI  0.000000 -0.139000  0.709436
H  -0.000000  0.967654  1.660502
2
Frame 234   E = -7.94378787 Ha
LI  0.000000 -0.140258  0.712548
H  -0.000000  0.976409  1.660626
2
Frame 235   E = -7.94405380 Ha
LI  0.000000 -0.141660  0.715537
H  -0.000000  0.986167  1.661614
2
Frame 236   E = -7.94434476 Ha
LI  0.000000 -0.143195  0.718412
H  -0.000000  0.996853  1.663393
2
Frame 237   E = -7.94464238 Ha
LI  0.000000 -0.144850  0.721185
H  -0.000000  1.008378  1.665879
2
Frame 238   E = -7.94492873 Ha
LI  0.000000 -0.146612  0.723869
H  -0.000000  1.020642  1.668982
2
Frame 239   E = -7.94518756 Ha
LI  0.000000 -0.148464  0.726479
H  -0.000000  1.033534  1.672606
2
Frame 240   E = -7.94540519 Ha
LI  0.000000 -0.150389  0.729028
H  -0.000000  1.046938  1.676650
2
Frame 241   E = -7.94557116 Ha
LI  0.000000 -0.152371  0.731532
H  -0.000000  1.060733  1.681013
2
Frame 242   E = -7.94567853 Ha
LI  0.000000 -0.154391  0.734004
H  -0.000000  1.074795  1.685596
2
Frame 243   E = -7.94572389 Ha
LI  0.000000 -0.156432  0.736459
H  -0.000000  1.089004  1.690299
2
Frame 244   E = -7.94570720 Ha
LI  0.000000 -0.158476  0.738910
H  -0.000000  1.103239  1.695029
2
Frame 245   E = -7.94563138 Ha
LI  0.000000 -0.160508  0.741370
H  -0.000000  1.117383  1.699696
2
Frame 246   E = -7.94550189 Ha
LI  0.000000 -0.162511  0.743851
H  -0.000000  1.131326  1.704216
2
Frame 247   E = -7.94532612 Ha
LI  0.000000 -0.164470  0.746364
H  -0.000000  1.144961  1.708510
2
Frame 248   E = -7.94511294 Ha
LI  0.000000 -0.166370  0.748920
H  -0.000000  1.158191  1.712507
2
Frame 249   E = -7.94487211 Ha
LI  0.000000 -0.168199  0.751528
H  -0.000000  1.170923  1.716141
2
Frame 250   E = -7.94461389 Ha
LI  0.000000 -0.169945  0.754197
H  -0.000000  1.183075  1.719354
2
Frame 251   E = -7.94434853 Ha
LI  0.000000 -0.171596  0.756934
H  -0.000000  1.194568  1.722094
2
Frame 252   E = -7.94408602 Ha
LI  0.000000 -0.173142  0.759745
H  -0.000000  1.205335  1.724316
2
Frame 253   E = -7.94383572 Ha
LI  0.000000 -0.174576  0.762636
H  -0.000000  1.215315  1.725980
2
Frame 254   E = -7.94360618 Ha
LI  0.000000 -0.175889  0.765612
H  -0.000000  1.224454  1.727054
2
Frame 255   E = -7.94340492 Ha
LI  0.000000 -0.177074  0.768677
H  -0.000000  1.232708  1.727511
2
Frame 256   E = -7.94323833 Ha
LI  0.000000 -0.178127  0.771834
H  -0.000000  1.240038  1.727329
2
Frame 257   E = -7.94311153 Ha
LI  0.000000 -0.179043  0.775084
H  -0.000000  1.246414  1.726494
2
Frame 258   E = -7.94302831 Ha
LI  0.000000 -0.179819  0.778429
H  -0.000000  1.251814  1.724995
2
Frame 259   E = -7.94299110 Ha
LI  0.000000 -0.180452  0.781871
H  -0.000000  1.256221  1.722828
2
Frame 260   E = -7.94300093 Ha
LI  0.000000 -0.180941  0.785408
H  -0.000000  1.259628  1.719993
2
Frame 261   E = -7.94305741 Ha
LI  0.000000 -0.181287  0.789041
H  -0.000000  1.262033  1.716497
2
Frame 262   E = -7.94315875 Ha
LI  0.000000 -0.181489  0.792767
H  -0.000000  1.263444  1.712348
2
Frame 263   E = -7.94330179 Ha
LI  0.000000 -0.181551  0.796585
H  -0.000000  1.263874  1.707564
2
Frame 264   E = -7.94348203 Ha
LI  0.000000 -0.181475  0.800491
H  -0.000000  1.263346  1.702165
2
Frame 265   E = -7.94369371 Ha
LI  0.000000 -0.181266  0.804482
H  -0.000000  1.261888  1.696174
2
Frame 266   E = -7.94392988 Ha
LI  0.000000 -0.180929  0.808553
H  -0.000000  1.259539  1.689624
2
Frame 267   E = -7.94418255 Ha
LI  0.000000 -0.180470  0.812699
H  -0.000000  1.256345  1.682548
2
Frame 268   E = -7.94444283 Ha
LI  0.000000 -0.179897  0.816916
H  -0.000000  1.252359  1.674987
2
Frame 269   E = -7.94470113 Ha
LI  0.000000 -0.179220  0.821196
H  -0.000000  1.247644  1.666984
2
Frame 270   E = -7.94494746 Ha
LI  0.000000 -0.178448  0.825532
H  -0.000000  1.242271  1.658589
2
Frame 271   E = -7.94517168 Ha
LI  0.000000 -0.177593  0.829917
H  -0.000000  1.236322  1.649855
2
Frame 272   E = -7.94536392 Ha
LI  0.000000 -0.176669  0.834342
H  -0.000000  1.229885  1.640840
2
Frame 273   E = -7.94551497 Ha
LI  0.000000 -0.175688  0.838799
H  -0.000000  1.223058  1.631607
2
Frame 274   E = -7.94561679 Ha
LI  0.000000 -0.174667  0.843278
H  -0.000000  1.215947  1.622220
2
Frame 275   E = -7.94566299 Ha
LI  0.000000 -0.173621  0.847768
H  -0.000000  1.208667  1.612750
2
Frame 276   E = -7.94564933 Ha
LI  0.000000 -0.172568  0.852261
H  -0.000000  1.201339  1.603267
2
Frame 277   E = -7.94557424 Ha
LI  0.000000 -0.171527  0.856745
H  -0.000000  1.194091  1.593844
2
Frame 278   E = -7.94543921 Ha
LI  0.000000 -0.170517  0.861209
H  -0.000000  1.187056  1.584558
2
Frame 279   E = -7.94524905 Ha
LI  0.000000 -0.169556  0.865643
H  -0.000000  1.180370  1.575481
2
Frame 280   E = -7.94501204 Ha
LI  0.000000 -0.168666  0.870036
H  -0.000000  1.174171  1.566688
2
Frame 281   E = -7.94473970 Ha
LI  0.000000 -0.167865  0.874379
H  -0.000000  1.168594  1.558249
2
Frame 282   E = -7.94444642 Ha
LI  0.000000 -0.167172  0.878661
H  -0.000000  1.163773  1.550230
2
Frame 283   E = -7.94414875 Ha
LI  0.000000 -0.166606  0.882874
H  -0.000000  1.159833  1.542693
2
Frame 284   E = -7.94386435 Ha
LI  0.000000 -0.166183  0.887010
H  -0.000000  1.156889  1.535692
2
Frame 285   E = -7.94361079 Ha
LI  0.000000 -0.165918  0.891063
H  -0.000000  1.155046  1.529272
2
Frame 286   E = -7.94340425 Ha
LI  0.000000 -0.165824  0.895026
H  -0.000000  1.154390  1.523472
2
Frame 287   E = -7.94325815 Ha
LI  0.000000 -0.165910  0.898897
H  -0.000000  1.154989  1.518315
2
Frame 288   E = -7.94318206 Ha
LI  0.000000 -0.166184  0.902673
H  -0.000000  1.156892  1.513819
2
Frame 289   E = -7.94318078 Ha
LI  0.000000 -0.166648  0.906354
H  -0.000000  1.160123  1.509986
2
Frame 290   E = -7.94325397 Ha
LI  0.000000 -0.167303  0.909941
H  -0.000000  1.164684  1.506808
2
Frame 291   E = -7.94339619 Ha
LI  0.000000 -0.168146  0.913436
H  -0.000000  1.170554  1.504268
2
Frame 292   E = -7.94359736 Ha
LI  0.000000 -0.169171  0.916844
H  -0.000000  1.177688  1.502336
2
Frame 293   E = -7.94384375 Ha
LI  0.000000 -0.170368  0.920170
H  -0.000000  1.186021  1.500976
2
Frame 294   E = -7.94411910 Ha
LI  0.000000 -0.171725  0.923420
H  -0.000000  1.195468  1.500142
2
Frame 295   E = -7.94440594 Ha
LI  0.000000 -0.173227  0.926602
H  -0.000000  1.205928  1.499782
2
Frame 296   E = -7.94468696 Ha
LI  0.000000 -0.174859  0.929724
H  -0.000000  1.217284  1.499841
2
Frame 297   E = -7.94494611 Ha
LI  0.000000 -0.176601  0.932794
H  -0.000000  1.229412  1.500259
2
Frame 298   E = -7.94516959 Ha
LI  0.000000 -0.178434  0.935821
H  -0.000000  1.242177  1.500975
2
Frame 299   E = -7.94534648 Ha
LI  0.000000 -0.180340  0.938815
H  -0.000000  1.255440  1.501928
2
Frame 300   E = -7.94546910 Ha
LI  0.000000 -0.182296  0.941783
H  -0.000000  1.269060  1.503056
2
Frame 301   E = -7.94553314 Ha
LI  0.000000 -0.184284  0.944735
H  -0.000000  1.282899  1.504301
2
Frame 302   E = -7.94553748 Ha
LI  0.000000 -0.186283  0.947677
H  -0.000000  1.296817  1.505605
2
Frame 303   E = -7.94548395 Ha
LI  0.000000 -0.188275  0.950620
H  -0.000000  1.310681  1.506914
2
Frame 304   E = -7.94537684 Ha
LI  0.000000 -0.190240  0.953568
H  -0.000000  1.324364  1.508179
2
Frame 305   E = -7.94522250 Ha
LI  0.000000 -0.192163  0.956530
H  -0.000000  1.337746  1.509352
2
Frame 306   E = -7.94502877 Ha
LI  0.000000 -0.194025  0.959511
H  -0.000000  1.350711  1.510390
2
Frame 307   E = -7.94480454 Ha
LI  0.000000 -0.195813  0.962517
H  -0.000000  1.363157  1.511256
2
Frame 308   E = -7.94455927 Ha
LI  0.000000 -0.197512  0.965553
H  -0.000000  1.374985  1.511914
2
Frame 309   E = -7.94430263 Ha
LI  0.000000 -0.199110  0.968623
H  -0.000000  1.386109  1.512333
2
Frame 310   E = -7.94404409 Ha
LI  0.000000 -0.200595  0.971731
H  -0.000000  1.396449  1.512489
2
Frame 311   E = -7.94379270 Ha
LI  0.000000 -0.201958  0.974880
H  -0.000000  1.405936  1.512357
2
Frame 312   E = -7.94355683 Ha
LI  0.000000 -0.203189  0.978074
H  -0.000000  1.414508  1.511919
2
Frame 313   E = -7.94334399 Ha
LI  0.000000 -0.204282  0.981313
H  -0.000000  1.422112  1.511159
2
Frame 314   E = -7.94316067 Ha
LI  0.000000 -0.205228  0.984600
H  -0.000000  1.428704  1.510066
2
Frame 315   E = -7.94301228 Ha
LI  0.000000 -0.206025  0.987937
H  -0.000000  1.434247  1.508631
2
Frame 316   E = -7.94290302 Ha
LI  0.000000 -0.206666  0.991323
H  -0.000000  1.438715  1.506849
2
Frame 317   E = -7.94283589 Ha
LI  0.000000 -0.207151  0.994760
H  -0.000000  1.442086  1.504716
2
Frame 318   E = -7.94281260 Ha
LI  0.000000 -0.207476  0.998247
H  -0.000000  1.444349  1.502234
2
Frame 319   E = -7.94283360 Ha
LI  0.000000 -0.207641  1.001783
H  -0.000000  1.445500  1.499407
2
Frame 320   E = -7.94289806 Ha
LI  0.000000 -0.207647  1.005368
H  -0.000000  1.445543  1.496239
2
Frame 321   E = -7.94300389 Ha
LI  0.000000 -0.207496  1.009001
H  -0.000000  1.444488  1.492741
2
Frame 322   E = -7.94314776 Ha
LI  0.000000 -0.207190  1.012680
H  -0.000000  1.442357  1.488923
2
Frame 323   E = -7.94332516 Ha
LI  0.000000 -0.206733  1.016403
H  -0.000000  1.439176  1.484800
2
Frame 324   E = -7.94353045 Ha
LI  0.000000 -0.206130  1.020167
H  -0.000000  1.434982  1.480387
2
Frame 325   E = -7.94375695 Ha
LI  0.000000 -0.205389  1.023970
H  -0.000000  1.429818  1.475705
2
Frame 326   E = -7.94399706 Ha
LI  0.000000 -0.204515  1.027808
H  -0.000000  1.423739  1.470774
2
Frame 327   E = -7.94424241 Ha
LI  0.000000 -0.203519  1.031679
H  -0.000000  1.416805  1.465618
2
Frame 328   E = -7.94448406 Ha
LI  0.000000 -0.202411  1.035579
H  -0.000000  1.409087  1.460262
2
Frame 329   E = -7.94471270 Ha
LI  0.000000 -0.201201  1.039503
H  -0.000000  1.400665  1.454735
2
Frame 330   E = -7.94491896 Ha
LI  0.000000 -0.199902  1.043448
H  -0.000000  1.391627  1.449066
2
Frame 331   E = -7.94509375 Ha
LI  0.000000 -0.198530  1.047408
H  -0.000000  1.382071  1.443286
2
Frame 332   E = -7.94522863 Ha
LI  0.000000 -0.197098  1.051380
H  -0.000000  1.372104  1.437430
2
Frame 333   E = -7.94531625 Ha
LI  0.000000 -0.195624  1.055357
H  -0.000000  1.361840  1.431531
2
Frame 334   E = -7.94535077 Ha
LI  0.000000 -0.194124  1.059336
H  -0.000000  1.351403  1.425625
2
Frame 335   E = -7.94532837 Ha
LI  0.000000 -0.192619  1.063310
H  -0.000000  1.340924  1.419749
2
Frame 336   E = -7.94524764 Ha
LI  0.000000 -0.191127  1.067275
H  -0.000000  1.330537  1.413939
2
Frame 337   E = -7.94510998 Ha
LI  0.000000 -0.189669  1.071226
H  -0.000000  1.320386  1.408231
2
Frame 338   E = -7.94491984 Ha
LI  0.000000 -0.188265  1.075156
H  -0.000000  1.310614  1.402662
2
Frame 339   E = -7.94468479 Ha
LI  0.000000 -0.186937  1.079061
H  -0.000000  1.301366  1.397266
2
Frame 340   E = -7.94441545 Ha
LI  0.000000 -0.185704  1.082937
H  -0.000000  1.292786  1.392075
2
Frame 341   E = -7.94412508 Ha
LI  0.000000 -0.184588  1.086779
H  -0.000000  1.285014  1.387120
2
Frame 342   E = -7.94382900 Ha
LI  0.000000 -0.183607  1.090584
H  -0.000000  1.278183  1.382428
2
Frame 343   E = -7.94354366 Ha
LI  0.000000 -0.182778  1.094347
H  -0.000000  1.272413  1.378022
2
Frame 344   E = -7.94328560 Ha
LI  0.000000 -0.182117  1.098066
H  -0.000000  1.267815  1.373922
2
Frame 345   E = -7.94307024 Ha
LI  0.000000 -0.181638  1.101739
H  -0.000000  1.264480  1.370142
2
Frame 346   E = -7.94291070 Ha
LI  0.000000 -0.181351  1.105365
H  -0.000000  1.262482  1.366694
2
Frame 347   E = -7.94281668 Ha
LI  0.000000 -0.181264  1.108943
H  -0.000000  1.261872  1.363581
2
Frame 348   E = -7.94279369 Ha
LI  0.000000 -0.181380  1.112472
H  -0.000000  1.262681  1.360803
2
Frame 349   E = -7.94284253 Ha
LI  0.000000 -0.181701  1.115953
H  -0.000000  1.264914  1.358357
2
Frame 350   E = -7.94295926 Ha
LI  0.000000 -0.182223  1.119389
H  -0.000000  1.268551  1.356233
2
Frame 351   E = -7.94313557 Ha
LI  0.000000 -0.182941  1.122780
H  -0.000000  1.273550  1.354417
2
Frame 352   E = -7.94335949 Ha
LI  0.000000 -0.183846  1.126129
H  -0.000000  1.279849  1.352893
2
Frame 353   E = -7.94361641 Ha
LI  0.000000 -0.184925  1.129439
H  -0.000000  1.287362  1.351641
2
Frame 354   E = -7.94389027 Ha
LI  0.000000 -0.186164  1.132714
H  -0.000000  1.295989  1.350639
2
Frame 355   E = -7.94416476 Ha
LI  0.000000 -0.187547  1.135955
H  -0.000000  1.305613  1.349863
2
Frame 356   E = -7.94442437 Ha
LI  0.000000 -0.189054  1.139168
H  -0.000000  1.316108  1.349289
2
Frame 357   E = -7.94465539 Ha
LI  0.000000 -0.190667  1.142356
H  -0.000000  1.327335  1.348891
2
Frame 358   E = -7.94484654 Ha
LI  0.000000 -0.192365  1.145522
H  -0.000000  1.339156  1.348644
2
Frame 359   E = -7.94498940 Ha
LI  0.000000 -0.194128  1.148669
H  -0.000000  1.351424  1.348523
2
Frame 360   E = -7.94507862 Ha
LI  0.000000 -0.195934  1.151802
H  -0.000000  1.363998  1.348506
2
Frame 361   E = -7.94511184 Ha
LI  0.000000 -0.197763  1.154923
H  -0.000000  1.376733  1.348568
2
Frame 362   E = -7.94508950 Ha
LI  0.000000 -0.199596  1.158036
H  -0.000000  1.389492  1.348690
2
Frame 363   E = -7.94501449 Ha
LI  0.000000 -0.201413  1.161143
H  -0.000000  1.402144  1.348850
2
Frame 364   E = -7.94489177 Ha
LI  0.000000 -0.203197  1.164248
H  -0.000000  1.414561  1.349030
2
Frame 365   E = -7.94472787 Ha
LI  0.000000 -0.204930  1.167352
H  -0.000000  1.426625  1.349215
2
Frame 366   E = -7.94453050 Ha
LI  0.000000 -0.206596  1.170457
H  -0.000000  1.438227  1.349389
2
Frame 367   E = -7.94430813 Ha
LI  0.000000 -0.208182  1.173566
H  -0.000000  1.449263  1.349539
2
Frame 368   E = -7.94406956 Ha
LI  0.000000 -0.209673  1.176680
H  -0.000000  1.459643  1.349653
2
Frame 369   E = -7.94382363 Ha
LI  0.000000 -0.211057  1.179800
H  -0.000000  1.469281  1.349721
2
Frame 370   E = -7.94357893 Ha
LI  0.000000 -0.212325  1.182929
H  -0.000000  1.478103  1.349735
2
Frame 371   E = -7.94334354 Ha
LI  0.000000 -0.213465  1.186066
H  -0.000000  1.486043  1.349687
2
Frame 372   E = -7.94312489 Ha
LI  0.000000 -0.214470  1.189212
H  -0.000000  1.493041  1.349572
2
Frame 373   E = -7.94292959 Ha
LI  0.000000 -0.215334  1.192369
H  -0.000000  1.499051  1.349386
2
Frame 374   E = -7.94276330 Ha
LI  0.000000 -0.216049  1.195537
H  -0.000000  1.504030  1.349126
2
Frame 375   E = -7.94263068 Ha
LI  0.000000 -0.216611  1.198716
H  -0.000000  1.507946  1.348790
2
Frame 376   E = -7.94253532 Ha
LI  0.000000 -0.217018  1.201905
H  -0.000000  1.510774  1.348377
2
Frame 377   E = -7.94247968 Ha
LI  0.000000 -0.217265  1.205106
H  -0.000000  1.512497  1.347888
2
Frame 378   E = -7.94246511 Ha
LI  0.000000 -0.217353  1.208317
H  -0.000000  1.513106  1.347324
2
Frame 379   E = -7.94249180 Ha
LI  0.000000 -0.217280  1.211539
H  -0.000000  1.512600  1.346688
2
Frame 380   E = -7.94255879 Ha
LI  0.000000 -0.217048  1.214770
H  -0.000000  1.510984  1.345984
2
Frame 381   E = -7.94266401 Ha
LI  0.000000 -0.216658  1.218011
H  -0.000000  1.508273  1.345215
2
Frame 382   E = -7.94280427 Ha
LI  0.000000 -0.216115  1.221260
H  -0.000000  1.504488  1.344388
2
Frame 383   E = -7.94297530 Ha
LI  0.000000 -0.215421  1.224517
H  -0.000000  1.499660  1.343509
2
Frame 384   E = -7.94317183 Ha
LI  0.000000 -0.214583  1.227780
H  -0.000000  1.493824  1.342583
2
Frame 385   E = -7.94338766 Ha
LI  0.000000 -0.213607  1.231049
H  -0.000000  1.487028  1.341620
2
Frame 386   E = -7.94361572 Ha
LI  0.000000 -0.212500  1.234322
H  -0.000000  1.479326  1.340627
2
Frame 387   E = -7.94384825 Ha
LI  0.000000 -0.211272  1.237598
H  -0.000000  1.470779  1.339612
2
Frame 388   E = -7.94407696 Ha
LI  0.000000 -0.209934  1.240875
H  -0.000000  1.461459  1.338587
2
Frame 389   E = -7.94429322 Ha
LI  0.000000 -0.208495  1.244153
H  -0.000000  1.451446  1.337560
2
Frame 390   E = -7.94448831 Ha
LI  0.000000 -0.206970  1.247430
H  -0.000000  1.440828  1.336541
2
Frame 391   E = -7.94465375 Ha
LI  0.000000 -0.205372  1.250704
H  -0.000000  1.429704  1.335542
2
Frame 392   E = -7.94478160 Ha
LI  0.000000 -0.203717  1.253973
H  -0.000000  1.418179  1.334574
2
Frame 393   E = -7.94486490 Ha
LI  0.000000 -0.202020  1.257237
H  -0.000000  1.406367  1.333646
2
Frame 394   E = -7.94489804 Ha
LI  0.000000 -0.200299  1.260493
H  -0.000000  1.394391  1.332770
2
Frame 395   E = -7.94487721 Ha
LI  0.000000 -0.198574  1.263740
H  -0.000000  1.382379  1.331956
2
Frame 396   E = -7.94480082 Ha
LI  0.000000 -0.196863  1.266977
H  -0.000000  1.370468  1.331216
2
Frame 397   E = -7.94466980 Ha
LI  0.000000 -0.195187  1.270201
H  -0.000000  1.358797  1.330558
2
Frame 398   E = -7.94448793 Ha
LI  0.000000 -0.193565  1.273413
H  -0.000000  1.347509  1.329993
2
Frame 399   E = -7.94426191 Ha
LI  0.000000 -0.192019  1.276610
H  -0.000000  1.336748  1.329530
2
Frame 400   E = -7.94400134 Ha
LI  0.000000 -0.190570  1.279791
H  -0.000000  1.326658  1.329175
2
Frame 401   E = -7.94371840 Ha
LI  0.000000 -0.189237  1.282956
H  -0.000000  1.317378  1.328937
2
Frame 402   E = -7.94342734 Ha
LI  0.000000 -0.188039  1.286103
H  -0.000000  1.309041  1.328820
2
Frame 403   E = -7.94314373 Ha
LI  0.000000 -0.186995  1.289231
H  -0.000000  1.301770  1.328831
2
Frame 404   E = -7.94288345 Ha
LI  0.000000 -0.186120  1.292341
H  -0.000000  1.295677  1.328973
2
Frame 405   E = -7.94266168 Ha
LI  0.000000 -0.185427  1.295432
H  -0.000000  1.290855  1.329249
2
Frame 406   E = -7.94249167 Ha
LI  0.000000 -0.184928  1.298503
H  -0.000000  1.287383  1.329659
2
Frame 407   E = -7.94238376 Ha
LI  0.000000 -0.184632  1.301555
H  -0.000000  1.285318  1.330204
2
Frame 408   E = -7.94234446 Ha
LI  0.000000 -0.184542  1.304588
H  -0.000000  1.284694  1.330884
2
Frame 409   E = -7.94237595 Ha
LI  0.000000 -0.184661  1.307601
H  -0.000000  1.285522  1.331697
2
Frame 410   E = -7.94247586 Ha
LI  0.000000 -0.184987  1.310596
H  -0.000000  1.287790  1.332641
2
Frame 411   E = -7.94263751 Ha
LI  0.000000 -0.185514  1.313573
H  -0.000000  1.291463  1.333711
2
Frame 412   E = -7.94285046 Ha
LI  0.000000 -0.186236  1.316531
H  -0.000000  1.296485  1.334905
2
Frame 413   E = -7.94310139 Ha
LI  0.000000 -0.187139  1.319473
H  -0.000000  1.302777  1.336219
2
Frame 414   E = -7.94337519 Ha
LI  0.000000 -0.188212  1.322398
H  -0.000000  1.310243  1.337647
2
Frame 415   E = -7.94365604 Ha
LI  0.000000 -0.189437  1.325308
H  -0.000000  1.318774  1.339184
2
Frame 416   E = -7.94392855 Ha
LI  0.000000 -0.190798  1.328202
H  -0.000000  1.328246  1.340827
2
Frame 417   E = -7.94417867 Ha
LI  0.000000 -0.192275  1.331082
H  -0.000000  1.338527  1.342569
2
Frame 418   E = -7.94439444 Ha
LI  0.000000 -0.193848  1.333949
H  -0.000000  1.349478  1.344405
2
Frame 419   E = -7.94456650 Ha
LI  0.000000 -0.195497  1.336802
H  -0.000000  1.360957  1.346331
2
Frame 420   E = -7.94468834 Ha
LI  0.000000 -0.197201  1.339644
H  -0.000000  1.372820  1.348341
2
Frame 421   E = -7.94475636 Ha
LI  0.000000 -0.198940  1.342474
H  -0.000000  1.384925  1.350430
2
Frame 422   E = -7.94476975 Ha
LI  0.000000 -0.200694  1.345294
H  -0.000000  1.397135  1.352594
2
Frame 423   E = -7.94473017 Ha
LI  0.000000 -0.202443  1.348103
H  -0.000000  1.409314  1.354827
2
Frame 424   E = -7.94464145 Ha
LI  0.000000 -0.204170  1.350903
H  -0.000000  1.421335  1.357125
2
Frame 425   E = -7.94450917 Ha
LI  0.000000 -0.205857  1.353695
H  -0.000000  1.433077  1.359484
2
Frame 426   E = -7.94434021 Ha
LI  0.000000 -0.207487  1.356478
H  -0.000000  1.444427  1.361899
2
Frame 427   E = -7.94414237 Ha
LI  0.000000 -0.209046  1.359254
H  -0.000000  1.455280  1.364367
2
Frame 428   E = -7.94392398 Ha
LI  0.000000 -0.210520  1.362023
H  -0.000000  1.465539  1.366883
2
Frame 429   E = -7.94369357 Ha
LI  0.000000 -0.211896  1.364785
H  -0.000000  1.475118  1.369445
2
Frame 430   E = -7.94345957 Ha
LI  0.000000 -0.213163  1.367542
H  -0.000000  1.483937  1.372048
2
Frame 431   E = -7.94323007 Ha
LI  0.000000 -0.214310  1.370292
H  -0.000000  1.491927  1.374690
2
Frame 432   E = -7.94301261 Ha
LI  0.000000 -0.215330  1.373038
H  -0.000000  1.499024  1.377368
2
Frame 433   E = -7.94281404 Ha
LI  0.000000 -0.216213  1.375779
H  -0.000000  1.505177  1.380080
2
Frame 434   E = -7.94264038 Ha
LI  0.000000 -0.216955  1.378515
H  -0.000000  1.510339  1.382824
2
Frame 435   E = -7.94249675 Ha
LI  0.000000 -0.217549  1.381247
H  -0.000000  1.514474  1.385598
2
Frame 436   E = -7.94238725 Ha
LI  0.000000 -0.217991  1.383975
H  -0.000000  1.517552  1.388400
2
Frame 437   E = -7.94231496 Ha
LI  0.000000 -0.218278  1.386698
H  -0.000000  1.519552  1.391230
2
Frame 438   E = -7.94228189 Ha
LI  0.000000 -0.218409  1.389418
H  -0.000000  1.520461  1.394086
2
Frame 439   E = -7.94228897 Ha
LI  0.000000 -0.218382  1.392135
H  -0.000000  1.520271  1.396968
2
Frame 440   E = -7.94233599 Ha
LI  0.000000 -0.218197  1.394847
H  -0.000000  1.518984  1.399877
2
Frame 441   E = -7.94242169 Ha
LI  0.000000 -0.217856  1.397556
H  -0.000000  1.516609  1.402812
2
Frame 442   E = -7.94254370 Ha
LI  0.000000 -0.217361  1.400261
H  -0.000000  1.513163  1.405774
2
Frame 443   E = -7.94269858 Ha
LI  0.000000 -0.216715  1.402961
H  -0.000000  1.508668  1.408765
2
Frame 444   E = -7.94288187 Ha
LI  0.000000 -0.215924  1.405658
H  -0.000000  1.503158  1.411785
2
Frame 445   E = -7.94308817 Ha
LI  0.000000 -0.214992  1.408350
H  -0.000000  1.496672  1.414836
2
Frame 446   E = -7.94331115 Ha
LI  0.000000 -0.213927  1.411037
H  -0.000000  1.489258  1.417920
2
Frame 447   E = -7.94354372 Ha
LI  0.000000 -0.212737  1.413719
H  -0.000000  1.480972  1.421040
2
Frame 448   E = -7.94377812 Ha
LI  0.000000 -0.211430  1.416396
H  -0.000000  1.471878  1.424198
2
Frame 449   E = -7.94400611 Ha
LI  0.000000 -0.210018  1.419067
H  -0.000000  1.462049  1.427398
2
Frame 450   E = -7.94421921 Ha
LI  0.000000 -0.208513  1.421731
H  -0.000000  1.451569  1.430642
2
Frame 451   E = -7.94440892 Ha
LI  0.000000 -0.206927  1.424388
H  -0.000000  1.440526  1.433934
2
Frame 452   E = -7.94456702 Ha
LI  0.000000 -0.205274  1.427038
H  -0.000000  1.429021  1.437279
2
Frame 453   E = -7.94468599 Ha
LI  0.000000 -0.203570  1.429680
H  -0.000000  1.417161  1.440680
2
Frame 454   E = -7.94475933 Ha
LI  0.000000 -0.201832  1.432313
H  -0.000000  1.405061  1.444143
2
Frame 455   E = -7.94478201 Ha
LI  0.000000 -0.200078  1.434936
H  -0.000000  1.392846  1.447671
2
Frame 456   E = -7.94475088 Ha
LI  0.000000 -0.198325  1.437550
H  -0.000000  1.380645  1.451269
2
Frame 457   E = -7.94466509 Ha
LI  0.000000 -0.196594  1.440152
H  -0.000000  1.368594  1.454944
2
Frame 458   E = -7.94452637 Ha
LI  0.000000 -0.194905  1.442743
H  -0.000000  1.356833  1.458701
2
Frame 459   E = -7.94433930 Ha
LI  0.000000 -0.193277  1.445321
H  -0.000000  1.345506  1.462544
2
Frame 460   E = -7.94411140 Ha
LI  0.000000 -0.191733  1.447886
H  -0.000000  1.334754  1.466481
2
Frame 461   E = -7.94385296 Ha
LI  0.000000 -0.190291  1.450436
H  -0.000000  1.324720  1.470516
2
Frame 462   E = -7.94357673 Ha
LI  0.000000 -0.188973  1.452972
H  -0.000000  1.315540  1.474656
2
Frame 463   E = -7.94329734 Ha
LI  0.000000 -0.187796  1.455492
H  -0.000000  1.307344  1.478906
2
Frame 464   E = -7.94303045 Ha
LI  0.000000 -0.186777  1.457995
H  -0.000000  1.300251  1.483274
2
Frame 465   E = -7.94279178 Ha
LI  0.000000 -0.185932  1.460480
H  -0.000000  1.294368  1.487763
2
Frame 466   E = -7.94259597 Ha
LI  0.000000 -0.185273  1.462947
H  -0.000000  1.289782  1.492379
2
Frame 467   E = -7.94245547 Ha
LI  0.000000 -0.184811  1.465396
H  -0.000000  1.286566  1.497128
2
Frame 468   E = -7.94237950 Ha
LI  0.000000 -0.184553  1.467824
H  -0.000000  1.284769  1.502013
2
Frame 469   E = -7.94237333 Ha
LI  0.000000 -0.184502  1.470233
H  -0.000000  1.284419  1.507037
2
Frame 470   E = -7.94243774 Ha
LI  0.000000 -0.184660  1.472621
H  -0.000000  1.285519  1.512204
2
Frame 471   E = -7.94256901 Ha
LI  0.000000 -0.185024  1.474988
H  -0.000000  1.288049  1.517515
2
Frame 472   E = -7.94275919 Ha
LI  0.000000 -0.185587  1.477335
H  -0.000000  1.291967  1.522970
2
Frame 473   E = -7.94299680 Ha
LI  0.000000 -0.186340  1.479661
H  -0.000000  1.297209  1.528569
2
Frame 474   E = -7.94326777 Ha
LI  0.000000 -0.187271  1.481967
H  -0.000000  1.303691  1.534308
2
Frame 475   E = -7.94355651 Ha
LI  0.000000 -0.188365  1.484253
H  -0.000000  1.311311  1.540185
2
Frame 476   E = -7.94384710 Ha
LI  0.000000 -0.189607  1.486520
H  -0.000000  1.319955  1.546195
2
Frame 477   E = -7.94412429 Ha
LI  0.000000 -0.190977  1.488769
H  -0.000000  1.329494  1.552331
2
Frame 478   E = -7.94437445 Ha
LI  0.000000 -0.192457  1.491001
H  -0.000000  1.339794  1.558586
2
Frame 479   E = -7.94458625 Ha
LI  0.000000 -0.194025  1.493216
H  -0.000000  1.350712  1.564953
2
Frame 480   E = -7.94475106 Ha
LI  0.000000 -0.195662  1.495418
H  -0.000000  1.362106  1.571420
2
Frame 481   E = -7.94486320 Ha
LI  0.000000 -0.197346  1.497606
H  -0.000000  1.373830  1.577978
2
Frame 482   E = -7.94491992 Ha
LI  0.000000 -0.199057  1.499783
H  -0.000000  1.385742  1.584616
2
Frame 483   E = -7.94492120 Ha
LI  0.000000 -0.200775  1.501950
H  -0.000000  1.397704  1.591323
2
Frame 484   E = -7.94486949 Ha
LI  0.000000 -0.202482  1.504109
H  -0.000000  1.409583  1.598086
2
Frame 485   E = -7.94476931 Ha
LI  0.000000 -0.204158  1.506261
H  -0.000000  1.421250  1.604893
2
Frame 486   E = -7.94462680 Ha
LI  0.000000 -0.205786  1.508409
H  -0.000000  1.432588  1.611733
2
Frame 487   E = -7.94444937 Ha
LI  0.000000 -0.207352  1.510554
H  -0.000000  1.443484  1.618593
2
Frame 488   E = -7.94424521 Ha
LI  0.000000 -0.208838  1.512698
H  -0.000000  1.453835  1.625460
2
Frame 489   E = -7.94402295 Ha
LI  0.000000 -0.210233  1.514842
H  -0.000000  1.463546  1.632325
2
Frame 490   E = -7.94379136 Ha
LI  0.000000 -0.211524  1.516988
H  -0.000000  1.472533  1.639174
2
Frame 491   E = -7.94355901 Ha
LI  0.000000 -0.212700  1.519138
H  -0.000000  1.480717  1.645998
2
Frame 492   E = -7.94333406 Ha
LI  0.000000 -0.213751  1.521293
H  -0.000000  1.488032  1.652786
2
Frame 493   E = -7.94312407 Ha
LI  0.000000 -0.214668  1.523455
H  -0.000000  1.494418  1.659529
2
Frame 494   E = -7.94293583 Ha
LI  0.000000 -0.215444  1.525625
H  -0.000000  1.499823  1.666218
2
Frame 495   E = -7.94277524 Ha
LI  0.000000 -0.216074  1.527803
H  -0.000000  1.504205  1.672845
2
Frame 496   E = -7.94264725 Ha
LI  0.000000 -0.216551  1.529991
H  -0.000000  1.507529  1.679402
2
Frame 497   E = -7.94255575 Ha
LI  0.000000 -0.216873  1.532191
H  -0.000000  1.509769  1.685884
2
Frame 498   E = -7.94250355 Ha
LI  0.000000 -0.217036  1.534402
H  -0.000000  1.510905  1.692284
2
Frame 499   E = -7.94249231 Ha
LI  0.000000 -0.217040  1.536625
H  -0.000000  1.510927  1.698598
2
Frame 500   E = -7.94252257 Ha
LI  0.000000 -0.216882  1.538861
H  -0.000000  1.509831  1.704824
2
Frame 501   E = -7.94259371 Ha
LI  0.000000 -0.216565  1.541110
H  -0.000000  1.507622  1.710958
2
Frame 502   E = -7.94270396 Ha
LI  0.000000 -0.216089  1.543373
H  -0.000000  1.504312  1.716999
2
Frame 503   E = -7.94285041 Ha
LI  0.000000 -0.215458  1.545648
H  -0.000000  1.499920  1.722948
2
Frame 504   E = -7.94302906 Ha
LI  0.000000 -0.214676  1.547937
H  -0.000000  1.494475  1.728805
2
Frame 505   E = -7.94323482 Ha
LI  0.000000 -0.213748  1.550239
H  -0.000000  1.488013  1.734574
2
Frame 506   E = -7.94346163 Ha
LI  0.000000 -0.212680  1.552553
H  -0.000000  1.480577  1.740257
2
Frame 507   E = -7.94370253 Ha
LI  0.000000 -0.211479  1.554878
H  -0.000000  1.472220  1.745861
2
Frame 508   E = -7.94394978 Ha
LI  0.000000 -0.210155  1.557214
H  -0.000000  1.463003  1.751392
2
Frame 509   E = -7.94419502 Ha
LI  0.000000 -0.208718  1.559559
H  -0.000000  1.452996  1.756859
2
Frame 510   E = -7.94442950 Ha
LI  0.000000 -0.207178  1.561912
H  -0.000000  1.442277  1.762271
2
Frame 511   E = -7.94464430 Ha
LI  0.000000 -0.205549  1.564271
H  -0.000000  1.430934  1.767641
2
Frame 512   E = -7.94483066 Ha
LI  0.000000 -0.203844  1.566634
H  -0.000000  1.419064  1.772982
2
Frame 513   E = -7.94498032 Ha
LI  0.000000 -0.202078  1.568999
H  -0.000000  1.406771  1.778309
2
Frame 514   E = -7.94508594 Ha
LI  0.000000 -0.200268  1.571363
H  -0.000000  1.394169  1.783640
2
Frame 515   E = -7.94514149 Ha
LI  0.000000 -0.198430  1.573725
H  -0.000000  1.381380  1.788994
2
Frame 516   E = -7.94514276 Ha
LI  0.000000 -0.196585  1.576080
H  -0.000000  1.368532  1.794391
2
Frame 517   E = -7.94508776 Ha
LI  0.000000 -0.194750  1.578425
H  -0.000000  1.355760  1.799854
2
Frame 518   E = -7.94497711 Ha
LI  0.000000 -0.192947  1.580758
H  -0.000000  1.343204  1.805407
2
Frame 519   E = -7.94481436 Ha
LI  0.000000 -0.191195  1.583074
H  -0.000000  1.331008  1.811075
2
Frame 520   E = -7.94460611 Ha
LI  0.000000 -0.189515  1.585370
H  -0.000000  1.319315  1.816885
2
Frame 521   E = -7.94436199 Ha
LI  0.000000 -0.187929  1.587641
H  -0.000000  1.308270  1.822864
2
Frame 522   E = -7.94409437 Ha
LI  0.000000 -0.186455  1.589884
H  -0.000000  1.298011  1.829040
2
Frame 523   E = -7.94381785 Ha
LI  0.000000 -0.185113  1.592095
H  -0.000000  1.288672  1.835439
2
Frame 524   E = -7.94354845 Ha
LI  0.000000 -0.183922  1.594271
H  -0.000000  1.280375  1.842089
2
Frame 525   E = -7.94330261 Ha
LI  0.000000 -0.182895  1.596406
H  -0.000000  1.273231  1.849015
2
Frame 526   E = -7.94309601 Ha
LI  0.000000 -0.182048  1.598499
H  -0.000000  1.267336  1.856239
2
Frame 527   E = -7.94294238 Ha
LI  0.000000 -0.181392  1.600545
H  -0.000000  1.262764  1.863782
2
Frame 528   E = -7.94285237 Ha
LI  0.000000 -0.180933  1.602544
H  -0.000000  1.259571  1.871660
2
Frame 529   E = -7.94283262 Ha
LI  0.000000 -0.180677  1.604493
H  -0.000000  1.257789  1.879886
2
Frame 530   E = -7.94288513 Ha
LI  0.000000 -0.180625  1.606390
H  -0.000000  1.257427  1.888467
2
Frame 531   E = -7.94300713 Ha
LI  0.000000 -0.180775  1.608236
H  -0.000000  1.258470  1.897407
2
Frame 532   E = -7.94319128 Ha
LI  0.000000 -0.181121  1.610032
H  -0.000000  1.260879  1.906702
2
Frame 533   E = -7.94342629 Ha
LI  0.000000 -0.181654  1.611777
H  -0.000000  1.264592  1.916345
2
Frame 534   E = -7.94369787 Ha
LI  0.000000 -0.182363  1.613474
H  -0.000000  1.269528  1.926322
2
Frame 535   E = -7.94398992 Ha
LI  0.000000 -0.183234  1.615126
H  -0.000000  1.275588  1.936615
2
Frame 536   E = -7.94428570 Ha
LI  0.000000 -0.184249  1.616735
H  -0.000000  1.282657  1.947201
2
Frame 537   E = -7.94456905 Ha
LI  0.000000 -0.185391  1.618307
H  -0.000000  1.290607  1.958052
2
Frame 538   E = -7.94482534 Ha
LI  0.000000 -0.186641  1.619845
H  -0.000000  1.299304  1.969137
2
Frame 539   E = -7.94504231 Ha
LI  0.000000 -0.187977  1.621354
H  -0.000000  1.308605  1.980423
2
Frame 540   E = -7.94521056 Ha
LI  0.000000 -0.189379  1.622839
H  -0.000000  1.318367  1.991873
2
Frame 541   E = -7.94532380 Ha
LI  0.000000 -0.190826  1.624307
H  -0.000000  1.328443  2.003450
2
Frame 542   E = -7.94537890 Ha
LI  0.000000 -0.192298  1.625761
H  -0.000000  1.338692  2.015115
2
Frame 543   E = -7.94537570 Ha
LI  0.000000 -0.193775  1.627209
H  -0.000000  1.348973  2.026827
2
Frame 544   E = -7.94531673 Ha
LI  0.000000 -0.195238  1.628656
H  -0.000000  1.359154  2.038550
2
Frame 545   E = -7.94520674 Ha
LI  0.000000 -0.196667  1.630106
H  -0.000000  1.369106  2.050243
2
Frame 546   E = -7.94505235 Ha
LI  0.000000 -0.198047  1.631567
H  -0.000000  1.378711  2.061869
2
Frame 547   E = -7.94486147 Ha
LI  0.000000 -0.199361  1.633042
H  -0.000000  1.387858  2.073392
2
Frame 548   E = -7.94464294 Ha
LI  0.000000 -0.200594  1.634537
H  -0.000000  1.396444  2.084777
2
Frame 549   E = -7.94440608 Ha
LI  0.000000 -0.201734  1.636056
H  -0.000000  1.404375  2.095992
2
Frame 550   E = -7.94416033 Ha
LI  0.000000 -0.202767  1.637604
H  -0.000000  1.411567  2.107006
2
Frame 551   E = -7.94391492 Ha
LI  0.000000 -0.203683  1.639185
H  -0.000000  1.417944  2.117790
2
Frame 552   E = -7.94367864 Ha
LI  0.000000 -0.204473  1.640803
H  -0.000000  1.423441  2.128318
2
Frame 553   E = -7.94345959 Ha
LI  0.000000 -0.205127  1.642461
H  -0.000000  1.428000  2.138567
2
Frame 554   E = -7.94326502 Ha
LI  0.000000 -0.205640  1.644163
H  -0.000000  1.431572  2.148515
2
Frame 555   E = -7.94310120 Ha
LI  0.000000 -0.206006  1.645910
H  -0.000000  1.434116  2.158143
2
Frame 556   E = -7.94297330 Ha
LI  0.000000 -0.206219  1.647705
H  -0.000000  1.435601  2.167436
2
Frame 557   E = -7.94288534 Ha
LI  0.000000 -0.206277  1.649551
H  -0.000000  1.436003  2.176380
2
Frame 558   E = -7.94284009 Ha
LI  0.000000 -0.206177  1.651448
H  -0.000000  1.435305  2.184964
2
Frame 559   E = -7.94283910 Ha
LI  0.000000 -0.205917  1.653398
H  -0.000000  1.433500  2.193180
2
Frame 560   E = -7.94288261 Ha
LI  0.000000 -0.205499  1.655402
H  -0.000000  1.430588  2.201024
2
Frame 561   E = -7.94296956 Ha
LI  0.000000 -0.204923  1.657459
H  -0.000000  1.426577  2.208493
2
Frame 562   E = -7.94309765 Ha
LI  0.000000 -0.204191  1.659570
H  -0.000000  1.421482  2.215589
2
Frame 563   E = -7.94326327 Ha
LI  0.000000 -0.203307  1.661734
H  -0.000000  1.415328  2.222315
2
Frame 564   E = -7.94346162 Ha
LI  0.000000 -0.202275  1.663950
H  -0.000000  1.408145  2.228679
2
Frame 565   E = -7.94368674 Ha
LI  0.000000 -0.201102  1.666217
H  -0.000000  1.399974  2.234693
2
Frame 566   E = -7.94393158 Ha
LI  0.000000 -0.199793  1.668532
H  -0.000000  1.390864  2.240370
2
Frame 567   E = -7.94418815 Ha
LI  0.000000 -0.198357  1.670892
H  -0.000000  1.380870  2.245728
2
Frame 568   E = -7.94444769 Ha
LI  0.000000 -0.196804  1.673295
H  -0.000000  1.370059  2.250791
2
Frame 569   E = -7.94470084 Ha
LI  0.000000 -0.195144  1.675737
H  -0.000000  1.358504  2.255583
2
Frame 570   E = -7.94493793 Ha
LI  0.000000 -0.193390  1.678214
H  -0.000000  1.346288  2.260135
2
Frame 571   E = -7.94514928 Ha
LI  0.000000 -0.191553  1.680720
H  -0.000000  1.333503  2.264482
2
Frame 572   E = -7.94532560 Ha
LI  0.000000 -0.189649  1.683250
H  -0.000000  1.320250  2.268661
2
Frame 573   E = -7.94545839 Ha
LI  0.000000 -0.187694  1.685797
H  -0.000000  1.306636  2.272716
2
Frame 574   E = -7.94554042 Ha
LI  0.000000 -0.185703  1.688356
H  -0.000000  1.292779  2.276695
2
Frame 575   E = -7.94556625 Ha
LI  0.000000 -0.183696  1.690919
H  -0.000000  1.278802  2.280647
2
Frame 576   E = -7.94553270 Ha
LI  0.000000 -0.181689  1.693477
H  -0.000000  1.264835  2.284629
2
Frame 577   E = -7.94543933 Ha
LI  0.000000 -0.179704  1.696023
H  -0.000000  1.251013  2.288699
2
Frame 578   E = -7.94528880 Ha
LI  0.000000 -0.177759  1.698547
H  -0.000000  1.237475  2.292917
2
Frame 579   E = -7.94508712 Ha
LI  0.000000 -0.175875  1.701041
H  -0.000000  1.224360  2.297348
2
Frame 580   E = -7.94484362 Ha
LI  0.000000 -0.174072  1.703495
H  -0.000000  1.211808  2.302056
2
Frame 581   E = -7.94457079 Ha
LI  0.000000 -0.172369  1.705900
H  -0.000000  1.199955  2.307105
2
Frame 582   E = -7.94428372 Ha
LI  0.000000 -0.170786  1.708247
H  -0.000000  1.188929  2.312559
2
Frame 583   E = -7.94399930 Ha
LI  0.000000 -0.169338  1.710527
H  -0.000000  1.178853  2.318479
2
Frame 584   E = -7.94373517 Ha
LI  0.000000 -0.168042  1.712732
H  -0.000000  1.169832  2.324921
2
Frame 585   E = -7.94350844 Ha
LI  0.000000 -0.166912  1.714854
H  -0.000000  1.161961  2.331935
2
Frame 586   E = -7.94333437 Ha
LI  0.000000 -0.165957  1.716889
H  -0.000000  1.155314  2.339565
2
Frame 587   E = -7.94322504 Ha
LI  0.000000 -0.165186  1.718830
H  -0.000000  1.149946  2.347846
2
Frame 588   E = -7.94318835 Ha
LI  0.000000 -0.164603  1.720673
H  -0.000000  1.145889  2.356802
2
Frame 589   E = -7.94322721 Ha
LI  0.000000 -0.164210  1.722418
H  -0.000000  1.143153  2.366446
2
Frame 590   E = -7.94333933 Ha
LI  0.000000 -0.164005  1.724064
H  -0.000000  1.141724  2.376780
2
Frame 591   E = -7.94351740 Ha
LI  0.000000 -0.163982  1.725612
H  -0.000000  1.141565  2.387794
2
Frame 592   E = -7.94374971 Ha
LI  0.000000 -0.164133  1.727066
H  -0.000000  1.142618  2.399466
2
Frame 593   E = -7.94402122 Ha
LI  0.000000 -0.164448  1.728430
H  -0.000000  1.144806  2.411762
2
Frame 594   E = -7.94431479 Ha
LI  0.000000 -0.164911  1.729710
H  -0.000000  1.148034  2.424640
2
Frame 595   E = -7.94461256 Ha
LI  0.000000 -0.165508  1.730915
H  -0.000000  1.152191  2.438046
2
Frame 596   E = -7.94489721 Ha
LI  0.000000 -0.166222  1.732052
H  -0.000000  1.157159  2.451920
2
Frame 597   E = -7.94515315 Ha
LI  0.000000 -0.167033  1.733132
H  -0.000000  1.162808  2.466195
2
Frame 598   E = -7.94536731 Ha
LI  0.000000 -0.167924  1.734165
H  -0.000000  1.169005  2.480798
2
Frame 599   E = -7.94552976 Ha
LI  0.000000 -0.168873  1.735161
H  -0.000000  1.175613  2.495654
2
Frame 600   E = -7.94563400 Ha
LI  0.000000 -0.169862  1.736132
H  -0.000000  1.182497  2.510687
2
Frame 601   E = -7.94567693 Ha
LI  0.000000 -0.170871  1.737089
H  -0.000000  1.189524  2.525819
2
Frame 602   E = -7.94565870 Ha
LI  0.000000 -0.171882  1.738042
H  -0.000000  1.196564  2.540973
2
Frame 603   E = -7.94558234 Ha
LI  0.000000 -0.172878  1.739003
H  -0.000000  1.203493  2.556072
2
Frame 604   E = -7.94545329 Ha
LI  0.000000 -0.173840  1.739983
H  -0.000000  1.210196  2.571045
2
Frame 605   E = -7.94527891 Ha
LI  0.000000 -0.174755  1.740991
H  -0.000000  1.216562  2.585822
2
Frame 606   E = -7.94506795 Ha
LI  0.000000 -0.175607  1.742036
H  -0.000000  1.222491  2.600335
2
Frame 607   E = -7.94483006 Ha
LI  0.000000 -0.176382  1.743128
H  -0.000000  1.227892  2.614524
2
Frame 608   E = -7.94457534 Ha
LI  0.000000 -0.177070  1.744275
H  -0.000000  1.232679  2.628331
2
Frame 609   E = -7.94431395 Ha
LI  0.000000 -0.177659  1.745485
H  -0.000000  1.236779  2.641703
2
Frame 610   E = -7.94405573 Ha
LI  0.000000 -0.178140  1.746764
H  -0.000000  1.240125  2.654591
2
Frame 611   E = -7.94380998 Ha
LI  0.000000 -0.178504  1.748118
H  -0.000000  1.242661  2.666953
2
Frame 612   E = -7.94358516 Ha
LI  0.000000 -0.178745  1.749554
H  -0.000000  1.244336  2.678750
2
Frame 613   E = -7.94338876 Ha
LI  0.000000 -0.178856  1.751075
H  -0.000000  1.245111  2.689950
2
Frame 614   E = -7.94322714 Ha
LI  0.000000 -0.178833  1.752687
H  -0.000000  1.244952  2.700523
2
Frame 615   E = -7.94310540 Ha
LI  0.000000 -0.178673  1.754392
H  -0.000000  1.243834  2.710447
2
Frame 616   E = -7.94302735 Ha
LI  0.000000 -0.178372  1.756192
H  -0.000000  1.241740  2.719703
2
Frame 617   E = -7.94299543 Ha
LI  0.000000 -0.177929  1.758091
H  -0.000000  1.238661  2.728279
2
Frame 618   E = -7.94301068 Ha
LI  0.000000 -0.177345  1.760088
H  -0.000000  1.234593  2.736166
2
Frame 619   E = -7.94307272 Ha
LI  0.000000 -0.176619  1.762185
H  -0.000000  1.229541  2.743362
2
Frame 620   E = -7.94317976 Ha
LI  0.000000 -0.175754  1.764380
H  -0.000000  1.223518  2.749869
2
Frame 621   E = -7.94332861 Ha
LI  0.000000 -0.174752  1.766674
H  -0.000000  1.216544  2.755696
2
Frame 622   E = -7.94351475 Ha
LI  0.000000 -0.173618  1.769063
H  -0.000000  1.208644  2.760854
2
Frame 623   E = -7.94373233 Ha
LI  0.000000 -0.172355  1.771545
H  -0.000000  1.199852  2.765365
2
Frame 624   E = -7.94397431 Ha
LI  0.000000 -0.170970  1.774117
H  -0.000000  1.190211  2.769252
2
Frame 625   E = -7.94423257 Ha
LI  0.000000 -0.169470  1.776774
H  -0.000000  1.179770  2.772547
2
Frame 626   E = -7.94449805 Ha
LI  0.000000 -0.167863  1.779511
H  -0.000000  1.168585  2.775288
2
Frame 627   E = -7.94476101 Ha
LI  0.000000 -0.166159  1.782321
H  -0.000000  1.156720  2.777518
2
Frame 628   E = -7.94501123 Ha
LI  0.000000 -0.164367  1.785197
H  -0.000000  1.144247  2.779288
2
Frame 629   E = -7.94523839 Ha
LI  0.000000 -0.162500  1.788131
H  -0.000000  1.131246  2.780655
2
Frame 630   E = -7.94543243 Ha
LI  0.000000 -0.160569  1.791113
H  -0.000000  1.117804  2.781684
2
Frame 631   E = -7.94558398 Ha
LI  0.000000 -0.158588  1.794134
H  -0.000000  1.104015  2.782445
2
Frame 632   E = -7.94568491 Ha
LI  0.000000 -0.156572  1.797183
H  -0.000000  1.089980  2.783016
2
Frame 633   E = -7.94572880 Ha
LI  0.000000 -0.154536  1.800246
H  -0.000000  1.075806  2.783482
2
Frame 634   E = -7.94571152 Ha
LI  0.000000 -0.152496  1.803312
H  -0.000000  1.061606  2.783931
2
Frame 635   E = -7.94563172 Ha
LI  0.000000 -0.150469  1.806366
H  -0.000000  1.047495  2.784459
2
Frame 636   E = -7.94549126 Ha
LI  0.000000 -0.148472  1.809395
H  -0.000000  1.033595  2.785165
2
Frame 637   E = -7.94529550 Ha
LI  0.000000 -0.146523  1.812384
H  -0.000000  1.020024  2.786152
2
Frame 638   E = -7.94505334 Ha
LI  0.000000 -0.144638  1.815317
H  -0.000000  1.006904  2.787523
2
Frame 639   E = -7.94477709 Ha
LI  0.000000 -0.142835  1.818180
H  -0.000000  0.994350  2.789382
2
Frame 640   E = -7.94448199 Ha
LI  0.000000 -0.141129  1.820959
H  -0.000000  0.982475  2.791828
2
Frame 641   E = -7.94418535 Ha
LI  0.000000 -0.139536  1.823640
H  -0.000000  0.971381  2.794960
2
Frame 642   E = -7.94390554 Ha
LI  0.000000 -0.138067  1.826209
H  -0.000000  0.961161  2.798865
2
Frame 643   E = -7.94366064 Ha
LI  0.000000 -0.136736  1.828656
H  -0.000000  0.951895  2.803623
2
Frame 644   E = -7.94346701 Ha
LI  0.000000 -0.135552  1.830971
H  -0.000000  0.943647  2.809301
2
Frame 645   E = -7.94333797 Ha
LI  0.000000 -0.134520  1.833145
H  -0.000000  0.936464  2.815952
2
Frame 646   E = -7.94328253 Ha
LI  0.000000 -0.133645  1.835175
H  -0.000000  0.930373  2.823612
2
Frame 647   E = -7.94330463 Ha
LI  0.000000 -0.132928  1.837057
H  -0.000000  0.925385  2.832302
2
Frame 648   E = -7.94340276 Ha
LI  0.000000 -0.132368  1.838791
H  -0.000000  0.921486  2.842022
2
Frame 649   E = -7.94357007 Ha
LI  0.000000 -0.131961  1.840380
H  -0.000000  0.918647  2.852755
2
Frame 650   E = -7.94379502 Ha
LI  0.000000 -0.131698  1.841828
H  -0.000000  0.916819  2.864465
2
Frame 651   E = -7.94406244 Ha
LI  0.000000 -0.131571  1.843143
H  -0.000000  0.915938  2.877101
2
Frame 652   E = -7.94435481 Ha
LI  0.000000 -0.131569  1.844336
H  -0.000000  0.915923  2.890593
2
Frame 653   E = -7.94465369 Ha
LI  0.000000 -0.131679  1.845416
H  -0.000000  0.916686  2.904861
2
Frame 654   E = -7.94494113 Ha
LI  0.000000 -0.131886  1.846399
H  -0.000000  0.918125  2.919812
2
Frame 655   E = -7.94520081 Ha
LI  0.000000 -0.132174  1.847298
H  -0.000000  0.920134  2.935345
2
Frame 656   E = -7.94541903 Ha
LI  0.000000 -0.132529  1.848129
H  -0.000000  0.922604  2.951351
2
Frame 657   E = -7.94558530 Ha
LI  0.000000 -0.132934  1.848908
H  -0.000000  0.925422  2.967721
2
Frame 658   E = -7.94569266 Ha
LI  0.000000 -0.133373  1.849651
H  -0.000000  0.928478  2.984339
2
Frame 659   E = -7.94573773 Ha
LI  0.000000 -0.133830  1.850375
H  -0.000000  0.931663  3.001092
2
Frame 660   E = -7.94572049 Ha
LI  0.000000 -0.134291  1.851095
H  -0.000000  0.934871  3.017869
2
Frame 661   E = -7.94564390 Ha
LI  0.000000 -0.134741  1.851828
H  -0.000000  0.938004  3.034561
2
Frame 662   E = -7.94551347 Ha
LI  0.000000 -0.135167  1.852587
H  -0.000000  0.940967  3.051065
2
Frame 663   E = -7.94533666 Ha
LI  0.000000 -0.135555  1.853388
H  -0.000000  0.943673  3.067282
2
Frame 664   E = -7.94512241 Ha
LI  0.000000 -0.135896  1.854244
H  -0.000000  0.946041  3.083119
2
Frame 665   E = -7.94488058 Ha
LI  0.000000 -0.136177  1.855166
H  -0.000000  0.947999  3.098490
2
Frame 666   E = -7.94462149 Ha
LI  0.000000 -0.136390  1.856166
H  -0.000000  0.949480  3.113317
2
Frame 667   E = -7.94435549 Ha
LI  0.000000 -0.136526  1.857255
H  -0.000000  0.950427  3.127528
2
Frame 668   E = -7.94409263 Ha
LI  0.000000 -0.136577  1.858442
H  -0.000000  0.950788  3.141057
2
Frame 669   E = -7.94384235 Ha
LI  0.000000 -0.136539  1.859735
H  -0.000000  0.950519  3.153847
2
Frame 670   E = -7.94361326 Ha
LI  0.000000 -0.136404  1.861142
H  -0.000000  0.949582  3.165849
2
Frame 671   E = -7.94341293 Ha
LI  0.000000 -0.136169  1.862667
H  -0.000000  0.947947  3.177018
2
Frame 672   E = -7.94324779 Ha
LI  0.000000 -0.135831  1.864318
H  -0.000000  0.945590  3.187320
2
Frame 673   E = -7.94312296 Ha
LI  0.000000 -0.135386  1.866097
H  -0.000000  0.942492  3.196724
2
Frame 674   E = -7.94304224 Ha
LI  0.000000 -0.134833  1.868009
H  -0.000000  0.938643  3.205209
2
Frame 675   E = -7.94300805 Ha
LI  0.000000 -0.134171  1.870054
H  -0.000000  0.934037  3.212760
2
Frame 676   E = -7.94302135 Ha
LI  0.000000 -0.133401  1.872235
H  -0.000000  0.928673  3.219370
2
Frame 677   E = -7.94308171 Ha
LI  0.000000 -0.132522  1.874552
H  -0.000000  0.922556  3.225036
2
Frame 678   E = -7.94318725 Ha
LI  0.000000 -0.131537  1.877003
H  -0.000000  0.915700  3.229766
2
Frame 679   E = -7.94333469 Ha
LI  0.000000 -0.130448  1.879586
H  -0.000000  0.908120  3.233572
2
Frame 680   E = -7.94351941 Ha
LI  0.000000 -0.129259  1.882299
H  -0.000000  0.899839  3.236475
2
Frame 681   E = -7.94373548 Ha
LI  0.000000 -0.127973  1.885138
H  -0.000000  0.890886  3.238504
2
Frame 682   E = -7.94397581 Ha
LI  0.000000 -0.126595  1.888098
H  -0.000000  0.881294  3.239693
2
Frame 683   E = -7.94423220 Ha
LI  0.000000 -0.125131  1.891172
H  -0.000000  0.871102  3.240086
2
Frame 684   E = -7.94449558 Ha
LI  0.000000 -0.123587  1.894352
H  -0.000000  0.860355  3.239736
2
Frame 685   E = -7.94475618 Ha
LI  0.000000 -0.121971  1.897631
H  -0.000000  0.849103  3.238701
2
Frame 686   E = -7.94500383 Ha
LI  0.000000 -0.120290  1.900998
H  -0.000000  0.837403  3.237051
2
Frame 687   E = -7.94522825 Ha
LI  0.000000 -0.118554  1.904443
H  -0.000000  0.825315  3.234863
2
Frame 688   E = -7.94541945 Ha
LI  0.000000 -0.116771  1.907953
H  -0.000000  0.812906  3.232221
2
Frame 689   E = -7.94556817 Ha
LI  0.000000 -0.114953  1.911514
H  -0.000000  0.800247  3.229220
2
Frame 690   E = -7.94566638 Ha
LI  0.000000 -0.113109  1.915113
H  -0.000000  0.787414  3.225962
2
Frame 691   E = -7.94570778 Ha
LI  0.000000 -0.111252  1.918732
H  -0.000000  0.774485  3.222556
2
Frame 692   E = -7.94568835 Ha
LI  0.000000 -0.109393  1.922356
H  -0.000000  0.761545  3.219120
2
Frame 693   E = -7.94560681 Ha
LI  0.000000 -0.107545  1.925967
H  -0.000000  0.748678  3.215777
2
Frame 694   E = -7.94546505 Ha
LI  0.000000 -0.105720  1.929546
H  -0.000000  0.735972  3.212653
2
Frame 695   E = -7.94526839 Ha
LI  0.000000 -0.103930  1.933074
H  -0.000000  0.723511  3.209880
2
Frame 696   E = -7.94502567 Ha
LI  0.000000 -0.102188  1.936534
H  -0.000000  0.711383  3.207589
2
Frame 697   E = -7.94474900 Ha
LI  0.000000 -0.100505  1.939905
H  -0.000000  0.699670  3.205912
2
Frame 698   E = -7.94445338 Ha
LI  0.000000 -0.098893  1.943170
H  -0.000000  0.688449  3.204976
2
Frame 699   E = -7.94415583 Ha
LI  0.000000 -0.097362  1.946311
H  -0.000000  0.677792  3.204900
2
Frame 700   E = -7.94387438 Ha
LI  0.000000 -0.095922  1.949313
H  -0.000000  0.667762  3.205794
2
Frame 701   E = -7.94362680 Ha
LI  0.000000 -0.094579  1.952161
H  -0.000000  0.658413  3.207757
2
Frame 702   E = -7.94342919 Ha
LI  0.000000 -0.093340  1.954844
H  -0.000000  0.649788  3.210871
2
Frame 703   E = -7.94329467 Ha
LI  0.000000 -0.092209  1.957353
H  -0.000000  0.641916  3.215199
2
Frame 704   E = -7.94323222 Ha
LI  0.000000 -0.091189  1.959681
H  -0.000000  0.634815  3.220784
2
Frame 705   E = -7.94324589 Ha
LI  0.000000 -0.090280  1.961825
H  -0.000000  0.628488  3.227648
2
Frame 706   E = -7.94333443 Ha
LI  0.000000 -0.089481  1.963786
H  -0.000000  0.622926  3.235790
2
Frame 707   E = -7.94349142 Ha
LI  0.000000 -0.088789  1.965566
H  -0.000000  0.618104  3.245185
2
Frame 708   E = -7.94370584 Ha
LI  0.000000 -0.088197  1.967174
H  -0.000000  0.613988  3.255789
2
Frame 709   E = -7.94396310 Ha
LI  0.000000 -0.087701  1.968617
H  -0.000000  0.610533  3.267534
2
Frame 710   E = -7.94424630 Ha
LI  0.000000 -0.087292  1.969908
H  -0.000000  0.607684  3.280337
2
Frame 711   E = -7.94453756 Ha
LI  0.000000 -0.086960  1.971062
H  -0.000000  0.605378  3.294095
2
Frame 712   E = -7.94481937 Ha
LI  0.000000 -0.086697  1.972095
H  -0.000000  0.603547  3.308696
2
Frame 713   E = -7.94507574 Ha
LI  0.000000 -0.086493  1.973025
H  -0.000000  0.602120  3.324015
2
Frame 714   E = -7.94529317 Ha
LI  0.000000 -0.086335  1.973870
H  -0.000000  0.601024  3.339921
2
Frame 715   E = -7.94546116 Ha
LI  0.000000 -0.086214  1.974650
H  -0.000000  0.600183  3.356280
2
Frame 716   E = -7.94557264 Ha
LI  0.000000 -0.086120  1.975386
H  -0.000000  0.599525  3.372954
2
Frame 717   E = -7.94562393 Ha
LI  0.000000 -0.086041  1.976095
H  -0.000000  0.598978  3.389808
2
Frame 718   E = -7.94561463 Ha
LI  0.000000 -0.085969  1.976798
H  -0.000000  0.598473  3.406707
2
Frame 719   E = -7.94554723 Ha
LI  0.000000 -0.085893  1.977513
H  -0.000000  0.597946  3.423522
2
Frame 720   E = -7.94542668 Ha
LI  0.000000 -0.085805  1.978257
H  -0.000000  0.597335  3.440130
2
Frame 721   E = -7.94525991 Ha
LI  0.000000 -0.085697  1.979048
H  -0.000000  0.596585  3.456415
2
Frame 722   E = -7.94505526 Ha
LI  0.000000 -0.085562  1.979901
H  -0.000000  0.595643  3.472268
2
Frame 723   E = -7.94482204 Ha
LI  0.000000 -0.085393  1.980831
H  -0.000000  0.594463  3.487587
2
Frame 724   E = -7.94457005 Ha
LI  0.000000 -0.085183  1.981851
H  -0.000000  0.593004  3.502280
2
Frame 725   E = -7.94430917 Ha
LI  0.000000 -0.084928  1.982973
H  -0.000000  0.591229  3.516262
2
Frame 726   E = -7.94404906 Ha
LI  0.000000 -0.084623  1.984207
H  -0.000000  0.589106  3.529459
2
Frame 727   E = -7.94379883 Ha
LI  0.000000 -0.084264  1.985564
H  -0.000000  0.586607  3.541804
2
Frame 728   E = -7.94356684 Ha
LI  0.000000 -0.083848  1.987052
H  -0.000000  0.583709  3.553237
2
Frame 729   E = -7.94336051 Ha
LI  0.000000 -0.083372  1.988678
H  -0.000000  0.580395  3.563710
2
Frame 730   E = -7.94318619 Ha
LI  0.000000 -0.082834  1.990448
H  -0.000000  0.576649  3.573181
2
Frame 731   E = -7.94304907 Ha
LI  0.000000 -0.082232  1.992367
H  -0.000000  0.572461  3.581615
2
Frame 732   E = -7.94295309 Ha
LI  0.000000 -0.081566  1.994438
H  -0.000000  0.567825  3.588988
2
Frame 733   E = -7.94290091 Ha
LI  0.000000 -0.080836  1.996664
H  -0.000000  0.562739  3.595282
2
Frame 734   E = -7.94289386 Ha
LI  0.000000 -0.080040  1.999047
H  -0.000000  0.557202  3.600487
2
Frame 735   E = -7.94293197 Ha
LI  0.000000 -0.079181  2.001586
H  -0.000000  0.551221  3.604602
2
Frame 736   E = -7.94301393 Ha
LI  0.000000 -0.078259  2.004281
H  -0.000000  0.544801  3.607631
2
Frame 737   E = -7.94313713 Ha
LI  0.000000 -0.077275  2.007130
H  -0.000000  0.537956  3.609589
2
Frame 738   E = -7.94329772 Ha
LI  0.000000 -0.076233  2.010130
H  -0.000000  0.530698  3.610498
2
Frame 739   E = -7.94349060 Ha
LI  0.000000 -0.075134  2.013276
H  -0.000000  0.523046  3.610388
2
Frame 740   E = -7.94370957 Ha
LI  0.000000 -0.073981  2.016563
H  -0.000000  0.515022  3.609296
2
Frame 741   E = -7.94394738 Ha
LI  0.000000 -0.072778  2.019985
H  -0.000000  0.506648  3.607269
2
Frame 742   E = -7.94419589 Ha
LI  0.000000 -0.071529  2.023532
H  -0.000000  0.497952  3.604364
2
Frame 743   E = -7.94444623 Ha
LI  0.000000 -0.070238  2.027197
H  -0.000000  0.488964  3.600642
2
Frame 744   E = -7.94468903 Ha
LI  0.000000 -0.068910  2.030969
H  -0.000000  0.479717  3.596179
2
Frame 745   E = -7.94491466 Ha
LI  0.000000 -0.067549  2.034835
H  -0.000000  0.470247  3.591055
2
Frame 746   E = -7.94511358 Ha
LI  0.000000 -0.066162  2.038783
H  -0.000000  0.460592  3.585363
2
Frame 747   E = -7.94527670 Ha
LI  0.000000 -0.064755  2.042798
H  -0.000000  0.450793  3.579201
2
Frame 748   E = -7.94539578 Ha
LI  0.000000 -0.063333  2.046865
H  -0.000000  0.440893  3.572680
2
Frame 749   E = -7.94546390 Ha
LI  0.000000 -0.061903  2.050967
H  -0.000000  0.430937  3.565916
2
Frame 750   E = -7.94547596 Ha
LI  0.000000 -0.060471  2.055086
H  -0.000000  0.420970  3.559036
2
Frame 751   E = -7.94542912 Ha
LI  0.000000 -0.059045  2.059203
H  -0.000000  0.411041  3.552169
2
Frame 752   E = -7.94532320 Ha
LI  0.000000 -0.057631  2.063297
H  -0.000000  0.401198  3.545456
2
Frame 753   E = -7.94516108 Ha
LI  0.000000 -0.056236  2.067350
H  -0.000000  0.391487  3.539036
2
Frame 754   E = -7.94494882 Ha
LI  0.000000 -0.054867  2.071339
H  -0.000000  0.381955  3.533054
2
Frame 755   E = -7.94469569 Ha
LI  0.000000 -0.053530  2.075245
H  -0.000000  0.372648  3.527654
2
Frame 756   E = -7.94441392 Ha
LI  0.000000 -0.052231  2.079048
H  -0.000000  0.363607  3.522977
2
Frame 757   E = -7.94411818 Ha
LI  0.000000 -0.050976  2.082726
H  -0.000000  0.354872  3.519159
2
Frame 758   E = -7.94382481 Ha
LI  0.000000 -0.049770  2.086264
H  -0.000000  0.346478  3.516327
2
Frame 759   E = -7.94355081 Ha
LI  0.000000 -0.048618  2.089642
H  -0.000000  0.338455  3.514596
2
Frame 760   E = -7.94331262 Ha
LI  0.000000 -0.047522  2.092849
H  -0.000000  0.330827  3.514067
2
Frame 761   E = -7.94312490 Ha
LI  0.000000 -0.046486  2.095870
H  -0.000000  0.323612  3.514823
2
Frame 762   E = -7.94299931 Ha
LI  0.000000 -0.045510  2.098699
H  -0.000000  0.316821  3.516926
2
Frame 763   E = -7.94294357 Ha
LI  0.000000 -0.044596  2.101327
H  -0.000000  0.310460  3.520417
2
Frame 764   E = -7.94296075 Ha
LI  0.000000 -0.043744  2.103755
H  -0.000000  0.304525  3.525313
2
Frame 765   E = -7.94304901 Ha
LI  0.000000 -0.042952  2.105981
H  -0.000000  0.299010  3.531606
2
Frame 766   E = -7.94320181 Ha
LI  0.000000 -0.042218  2.108011
H  -0.000000  0.293898  3.539266
2
Frame 767   E = -7.94340849 Ha
LI  0.000000 -0.041538  2.109852
H  -0.000000  0.289171  3.548239
2
Frame 768   E = -7.94365518 Ha
LI  0.000000 -0.040911  2.111516
H  -0.000000  0.284803  3.558450
2
Frame 769   E = -7.94392601 Ha
LI  0.000000 -0.040331  2.113015
H  -0.000000  0.280765  3.569806
2
Frame 770   E = -7.94420429 Ha
LI  0.000000 -0.039794  2.114365
H  -0.000000  0.277027  3.582198
2
Frame 771   E = -7.94447372 Ha
LI  0.000000 -0.039295  2.115584
H  -0.000000  0.273554  3.595502
2
Frame 772   E = -7.94471944 Ha
LI  0.000000 -0.038829  2.116691
H  -0.000000  0.270312  3.609586
2
Frame 773   E = -7.94492887 Ha
LI  0.000000 -0.038392  2.117706
H  -0.000000  0.267266  3.624311
2
Frame 774   E = -7.94509218 Ha
LI  0.000000 -0.037977  2.118650
H  -0.000000  0.264380  3.639534
2
Frame 775   E = -7.94520267 Ha
LI  0.000000 -0.037581  2.119543
H  -0.000000  0.261620  3.655111
2
Frame 776   E = -7.94525674 Ha
LI  0.000000 -0.037198  2.120405
H  -0.000000  0.258954  3.670899
2
Frame 777   E = -7.94525378 Ha
LI  0.000000 -0.036824  2.121258
H  -0.000000  0.256350  3.686757
2
Frame 778   E = -7.94519584 Ha
LI  0.000000 -0.036454  2.122119
H  -0.000000  0.253778  3.702550
2
Frame 779   E = -7.94508726 Ha
LI  0.000000 -0.036086  2.123009
H  -0.000000  0.251212  3.718151
2
Frame 780   E = -7.94493418 Ha
LI  0.000000 -0.035714  2.123943
H  -0.000000  0.248627  3.733436
2
Frame 781   E = -7.94474411 Ha
LI  0.000000 -0.035337  2.124939
H  -0.000000  0.246000  3.748293
2
Frame 782   E = -7.94452550 Ha
LI  0.000000 -0.034951  2.126012
H  -0.000000  0.243310  3.762616
2
Frame 783   E = -7.94428727 Ha
LI  0.000000 -0.034553  2.127176
H  -0.000000  0.240541  3.776308
2
Frame 784   E = -7.94403850 Ha
LI  0.000000 -0.034141  2.128442
H  -0.000000  0.237675  3.789283
2
Frame 785   E = -7.94378811 Ha
LI  0.000000 -0.033714  2.129823
H  -0.000000  0.234701  3.801461
2
Frame 786   E = -7.94354459 Ha
LI  0.000000 -0.033269  2.131328
H  -0.000000  0.231606  3.812774
2
Frame 787   E = -7.94331577 Ha
LI  0.000000 -0.032806  2.132967
H  -0.000000  0.228381  3.823158
2
Frame 788   E = -7.94310871 Ha
LI  0.000000 -0.032323  2.134746
H  -0.000000  0.225019  3.832564
2
Frame 789   E = -7.94292953 Ha
LI  0.000000 -0.031820  2.136673
H  -0.000000  0.221515  3.840946
2
Frame 790   E = -7.94278334 Ha
LI  0.000000 -0.031296  2.138751
H  -0.000000  0.217865  3.848268
2
Frame 791   E = -7.94267414 Ha
LI  0.000000 -0.030750  2.140986
H  -0.000000  0.214067  3.854504
2
Frame 792   E = -7.94260481 Ha
LI  0.000000 -0.030183  2.143379
H  -0.000000  0.210121  3.859633
2
Frame 793   E = -7.94257707 Ha
LI  0.000000 -0.029595  2.145933
H  -0.000000  0.206028  3.863645
2
Frame 794   E = -7.94259144 Ha
LI  0.000000 -0.028987  2.148648
H  -0.000000  0.201791  3.866534
2
Frame 795   E = -7.94264729 Ha
LI  0.000000 -0.028358  2.151524
H  -0.000000  0.197415  3.868304
2
Frame 796   E = -7.94274280 Ha
LI  0.000000 -0.027710  2.154559
H  -0.000000  0.192904  3.868968
2
Frame 797   E = -7.94287501 Ha
LI  0.000000 -0.027044  2.157750
H  -0.000000  0.188265  3.868545
2
Frame 798   E = -7.94303986 Ha
LI  0.000000 -0.026360  2.161094
H  -0.000000  0.183508  3.867062
2
Frame 799   E = -7.94323222 Ha
LI  0.000000 -0.025661  2.164584
H  -0.000000  0.178641  3.864554
2
Frame 800   E = -7.94344598 Ha
LI  0.000000 -0.024948  2.168216
H  -0.000000  0.173675  3.861065
2
Frame 801   E = -7.94367414 Ha
LI  0.000000 -0.024222  2.171981
H  -0.000000  0.168620  3.856647
2
Frame 802   E = -7.94390896 Ha
LI  0.000000 -0.023485  2.175870
H  -0.000000  0.163491  3.851361
2
Frame 803   E = -7.94414207 Ha
LI  0.000000 -0.022739  2.179875
H  -0.000000  0.158300  3.845276
2
Frame 804   E = -7.94436475 Ha
LI  0.000000 -0.021987  2.183983
H  -0.000000  0.153062  3.838470
2
Frame 805   E = -7.94456812 Ha
LI  0.000000 -0.021230  2.188182
H  -0.000000  0.147792  3.831029
2
Frame 806   E = -7.94474344 Ha
LI  0.000000 -0.020470  2.192458
H  -0.000000  0.142505  3.823050
2
Frame 807   E = -7.94488248 Ha
LI  0.000000 -0.019711  2.196797
H  -0.000000  0.137219  3.814637
2
Frame 808   E = -7.94497790 Ha
LI  0.000000 -0.018954  2.201182
H  -0.000000  0.131948  3.805903
2
Frame 809   E = -7.94502366 Ha
LI  0.000000 -0.018202  2.205596
H  -0.000000  0.126712  3.796969
2
Frame 810   E = -7.94501544 Ha
LI  0.000000 -0.017457  2.210020
H  -0.000000  0.121525  3.787964
2
Frame 811   E = -7.94495110 Ha
LI  0.000000 -0.016721  2.214435
H  -0.000000  0.116406  3.779021
2
Frame 812   E = -7.94483101 Ha
LI  0.000000 -0.015998  2.218820
H  -0.000000  0.111370  3.770280
2
Frame 813   E = -7.94465838 Ha
LI  0.000000 -0.015289  2.223157
H  -0.000000  0.106434  3.761886
2
Frame 814   E = -7.94443937 Ha
LI  0.000000 -0.014596  2.227422
H  -0.000000  0.101611  3.753982
2
Frame 815   E = -7.94418312 Ha
LI  0.000000 -0.013922  2.231597
H  -0.000000  0.096916  3.746713
2
Frame 816   E = -7.94390144 Ha
LI  0.000000 -0.013268  2.235660
H  -0.000000  0.092362  3.740220
2
Frame 817   E = -7.94360840 Ha
LI  0.000000 -0.012635  2.239592
H  -0.000000  0.087960  3.734638
2
Frame 818   E = -7.94331951 Ha
LI  0.000000 -0.012026  2.243375
H  -0.000000  0.083718  3.730093
2
Frame 819   E = -7.94305086 Ha
LI  0.000000 -0.011441  2.246993
H  -0.000000  0.079644  3.726700
2
Frame 820   E = -7.94281797 Ha
LI  0.000000 -0.010880  2.250431
H  -0.000000  0.075745  3.724556
2
Frame 821   E = -7.94263468 Ha
LI  0.000000 -0.010346  2.253678
H  -0.000000  0.072022  3.723743
2
Frame 822   E = -7.94251200 Ha
LI  0.000000 -0.009837  2.256725
H  -0.000000  0.068479  3.724323
2
Frame 823   E = -7.94245727 Ha
LI  0.000000 -0.009353  2.259566
H  -0.000000  0.065113  3.726335
2
Frame 824   E = -7.94247348 Ha
LI  0.000000 -0.008895  2.262200
H  -0.000000  0.061924  3.729793
2
Frame 825   E = -7.94255904 Ha
LI  0.000000 -0.008462  2.264627
H  -0.000000  0.058908  3.734692
2
Frame 826   E = -7.94270794 Ha
LI  0.000000 -0.008053  2.266851
H  -0.000000  0.056058  3.740999
2
Frame 827   E = -7.94291027 Ha
LI  0.000000 -0.007666  2.268881
H  -0.000000  0.053369  3.748660
2
Frame 828   E = -7.94315303 Ha
LI  0.000000 -0.007302  2.270726
H  -0.000000  0.050832  3.757602
2
Frame 829   E = -7.94342123 Ha
LI  0.000000 -0.006958  2.272402
H  -0.000000  0.048441  3.767733
2
Frame 830   E = -7.94369903 Ha
LI  0.000000 -0.006634  2.273922
H  -0.000000  0.046185  3.778942
2
Frame 831   E = -7.94397079 Ha
LI  0.000000 -0.006329  2.275304
H  -0.000000  0.044056  3.791109
2
Frame 832   E = -7.94422213 Ha
LI  0.000000 -0.006040  2.276568
H  -0.000000  0.042045  3.804103
2
Frame 833   E = -7.94444068 Ha
LI  0.000000 -0.005766  2.277733
H  -0.000000  0.040142  3.817785
2
Frame 834   E = -7.94461659 Ha
LI  0.000000 -0.005507  2.278819
H  -0.000000  0.038339  3.832013
2
Frame 835   E = -7.94474291 Ha
LI  0.000000 -0.005261  2.279848
H  -0.000000  0.036627  3.846644
2
Frame 836   E = -7.94481560 Ha
LI  0.000000 -0.005027  2.280839
H  -0.000000  0.034998  3.861536
2
Frame 837   E = -7.94483346 Ha
LI  0.000000 -0.004804  2.281813
H  -0.000000  0.033443  3.876547
2
Frame 838   E = -7.94479784 Ha
LI  0.000000 -0.004590  2.282789
H  -0.000000  0.031955  3.891545
2
Frame 839   E = -7.94471231 Ha
LI  0.000000 -0.004385  2.283786
H  -0.000000  0.030528  3.906399
2
Frame 840   E = -7.94458228 Ha
LI  0.000000 -0.004188  2.284820
H  -0.000000  0.029155  3.920988
2
Frame 841   E = -7.94441451 Ha
LI  0.000000 -0.003998  2.285910
H  -0.000000  0.027830  3.935196
2
Frame 842   E = -7.94421674 Ha
LI  0.000000 -0.003814  2.287069
H  -0.000000  0.026548  3.948919
2
Frame 843   E = -7.94399731 Ha
LI  0.000000 -0.003635  2.288312
H  -0.000000  0.025304  3.962058
2
Frame 844   E = -7.94376476 Ha
LI  0.000000 -0.003461  2.289651
H  -0.000000  0.024094  3.974525
2
Frame 845   E = -7.94352761 Ha
LI  0.000000 -0.003292  2.291099
H  -0.000000  0.022914  3.986239
2
Frame 846   E = -7.94329402 Ha
LI  0.000000 -0.003126  2.292665
H  -0.000000  0.021761  3.997129
2
Frame 847   E = -7.94307166 Ha
LI  0.000000 -0.002964  2.294358
H  -0.000000  0.020632  4.007132
2
Frame 848   E = -7.94286748 Ha
LI  0.000000 -0.002805  2.296187
H  -0.000000  0.019524  4.016194
2
Frame 849   E = -7.94268764 Ha
LI  0.000000 -0.002648  2.298157
H  -0.000000  0.018437  4.024269
2
Frame 850   E = -7.94253737 Ha
LI  0.000000 -0.002495  2.300275
H  -0.000000  0.017368  4.031318
2
Frame 851   E = -7.94242091 Ha
LI  0.000000 -0.002344  2.302544
H  -0.000000  0.016317  4.037312
2
Frame 852   E = -7.94234146 Ha
LI  0.000000 -0.002196  2.304968
H  -0.000000  0.015284  4.042228
2
Frame 853   E = -7.94230117 Ha
LI  0.000000 -0.002050  2.307549
H  -0.000000  0.014268  4.046051
2
Frame 854   E = -7.94230105 Ha
LI  0.000000 -0.001906  2.310288
H  -0.000000  0.013270  4.048775
2
Frame 855   E = -7.94234105 Ha
LI  0.000000 -0.001765  2.313185
H  -0.000000  0.012290  4.050399
2
Frame 856   E = -7.94242000 Ha
LI  0.000000 -0.001628  2.316239
H  -0.000000  0.011331  4.050933
2
Frame 857   E = -7.94253564 Ha
LI  0.000000 -0.001493  2.319447
H  -0.000000  0.010393  4.050390
2
Frame 858   E = -7.94268464 Ha
LI  0.000000 -0.001362  2.322807
H  -0.000000  0.009478  4.048796
2
Frame 859   E = -7.94286265 Ha
LI  0.000000 -0.001234  2.326313
H  -0.000000  0.008590  4.046180
2
Frame 860   E = -7.94306435 Ha
LI  0.000000 -0.001110  2.329960
H  -0.000000  0.007729  4.042583
2
Frame 861   E = -7.94328349 Ha
LI  0.000000 -0.000991  2.333741
H  -0.000000  0.006901  4.038050
2
Frame 862   E = -7.94351306 Ha
LI  0.000000 -0.000877  2.337649
H  -0.000000  0.006107  4.032637
2
Frame 863   E = -7.94374536 Ha
LI  0.000000 -0.000769  2.341674
H  -0.000000  0.005350  4.026407
2
Frame 864   E = -7.94397220 Ha
LI  0.000000 -0.000666  2.345806
H  -0.000000  0.004636  4.019434
2
Frame 865   E = -7.94418511 Ha
LI  0.000000 -0.000570  2.350033
H  -0.000000  0.003968  4.011798
2
Frame 866   E = -7.94437556 Ha
LI  0.000000 -0.000481  2.354343
H  -0.000000  0.003349  4.003588
2
Frame 867   E = -7.94453532 Ha
LI  0.000000 -0.000400  2.358721
H  -0.000000  0.002784  3.994904
2
Frame 868   E = -7.94465675 Ha
LI  0.000000 -0.000327  2.363152
H  -0.000000  0.002277  3.985850
2
Frame 869   E = -7.94473322 Ha
LI  0.000000 -0.000263  2.367619
H  -0.000000  0.001832  3.976543
2
Frame 870   E = -7.94475950 Ha
LI  0.000000 -0.000209  2.372105
H  -0.000000  0.001454  3.967105
2
Frame 871   E = -7.94473221 Ha
LI  0.000000 -0.000165  2.376591
H  -0.000000  0.001148  3.957666
2
Frame 872   E = -7.94465018 Ha
LI  0.000000 -0.000132  2.381058
H  -0.000000  0.000916  3.948359
2
Frame 873   E = -7.94451483 Ha
LI  0.000000 -0.000110  2.385486
H  -0.000000  0.000765  3.939326
2
Frame 874   E = -7.94433035 Ha
LI  0.000000 -0.000100  2.389854
H  -0.000000  0.000697  3.930709
2
Frame 875   E = -7.94410389 Ha
LI  0.000000 -0.000103  2.394142
H  -0.000000  0.000716  3.922650
2
Frame 876   E = -7.94384538 Ha
LI  0.000000 -0.000119  2.398330
H  -0.000000  0.000827  3.915292
2
Frame 877   E = -7.94356725 Ha
LI  0.000000 -0.000148  2.402397
H  -0.000000  0.001034  3.908771
2
Frame 878   E = -7.94328389 Ha
LI  0.000000 -0.000192  2.406324
H  -0.000000  0.001338  3.903220
2
Frame 879   E = -7.94301086 Ha
LI  0.000000 -0.000251  2.410095
H  -0.000000  0.001745  3.898759
2
Frame 880   E = -7.94276387 Ha
LI  0.000000 -0.000324  2.413695
H  -0.000000  0.002256  3.895494
2
Frame 881   E = -7.94255776 Ha
LI  0.000000 -0.000413  2.417109
H  -0.000000  0.002875  3.893519
2
Frame 882   E = -7.94240529 Ha
LI  0.000000 -0.000518  2.420327
H  -0.000000  0.003603  3.892907
2
Frame 883   E = -7.94231618 Ha
LI  0.000000 -0.000638  2.423342
H  -0.000000  0.004444  3.893711
2
Frame 884   E = -7.94229626 Ha
LI  0.000000 -0.000775  2.426149
H  -0.000000  0.005398  3.895961
2
Frame 885   E = -7.94234698 Ha
LI  0.000000 -0.000929  2.428747
H  -0.000000  0.006466  3.899665
2
Frame 886   E = -7.94246529 Ha
LI  0.000000 -0.001099  2.431139
H  -0.000000  0.007650  3.904807
2
Frame 887   E = -7.94264386 Ha
LI  0.000000 -0.001286  2.433329
H  -0.000000  0.008950  3.911348
2
Frame 888   E = -7.94287176 Ha
LI  0.000000 -0.001489  2.435328
H  -0.000000  0.010364  3.919227
2
Frame 889   E = -7.94313531 Ha
LI  0.000000 -0.001708  2.437146
H  -0.000000  0.011892  3.928364
2
Frame 890   E = -7.94341920 Ha
LI  0.000000 -0.001944  2.438797
H  -0.000000  0.013532  3.938659
2
Frame 891   E = -7.94370758 Ha
LI  0.000000 -0.002195  2.440298
H  -0.000000  0.015282  3.950001
2
Frame 892   E = -7.94398516 Ha
LI  0.000000 -0.002462  2.441667
H  -0.000000  0.017137  3.962264
2
Frame 893   E = -7.94423810 Ha
LI  0.000000 -0.002743  2.442923
H  -0.000000  0.019094  3.975313
2
Frame 894   E = -7.94445477 Ha
LI  0.000000 -0.003038  2.444086
H  -0.000000  0.021149  3.989010
2
Frame 895   E = -7.94462615 Ha
LI  0.000000 -0.003346  2.445176
H  -0.000000  0.023295  4.003211
2
Frame 896   E = -7.94474614 Ha
LI  0.000000 -0.003667  2.446215
H  -0.000000  0.025527  4.017772
2
Frame 897   E = -7.94481152 Ha
LI  0.000000 -0.003999  2.447222
H  -0.000000  0.027839  4.032552
2
Frame 898   E = -7.94482185 Ha
LI  0.000000 -0.004341  2.448218
H  -0.000000  0.030223  4.047410
2
Frame 899   E = -7.94477915 Ha
LI  0.000000 -0.004693  2.449222
H  -0.000000  0.032673  4.062214
2
Frame 900   E = -7.94468755 Ha
LI  0.000000 -0.005054  2.450252
H  -0.000000  0.035181  4.076837
2
Frame 901   E = -7.94455288 Ha
LI  0.000000 -0.005421  2.451325
H  -0.000000  0.037740  4.091156
2
Frame 902   E = -7.94438225 Ha
LI  0.000000 -0.005795  2.452458
H  -0.000000  0.040341  4.105061
2
Frame 903   E = -7.94418364 Ha
LI  0.000000 -0.006174  2.453665
H  -0.000000  0.042978  4.118447
2
Frame 904   E = -7.94396550 Ha
LI  0.000000 -0.006556  2.454961
H  -0.000000  0.045643  4.131219
2
Frame 905   E = -7.94373647 Ha
LI  0.000000 -0.006942  2.456358
H  -0.000000  0.048329  4.143289
2
Frame 906   E = -7.94350505 Ha
LI  0.000000 -0.007330  2.457866
H  -0.000000  0.051027  4.154579
2
Frame 907   E = -7.94327936 Ha
LI  0.000000 -0.007719  2.459497
H  -0.000000  0.053733  4.165020
2
Frame 908   E = -7.94306696 Ha
LI  0.000000 -0.008107  2.461258
H  -0.000000  0.056439  4.174551
2
Frame 909   E = -7.94287470 Ha
LI  0.000000 -0.008495  2.463157
H  -0.000000  0.059139  4.183119
2
Frame 910   E = -7.94270856 Ha
LI  0.000000 -0.008881  2.465201
H  -0.000000  0.061827  4.190681
2
Frame 911   E = -7.94257359 Ha
LI  0.000000 -0.009265  2.467395
H  -0.000000  0.064500  4.197200
2
Frame 912   E = -7.94247383 Ha
LI  0.000000 -0.009646  2.469743
H  -0.000000  0.067151  4.202647
2
Frame 913   E = -7.94241225 Ha
LI  0.000000 -0.010023  2.472248
H  -0.000000  0.069778  4.207003
2
Frame 914   E = -7.94239073 Ha
LI  0.000000 -0.010397  2.474911
H  -0.000000  0.072376  4.210254
2
Frame 915   E = -7.94241005 Ha
LI  0.000000 -0.010766  2.477734
H  -0.000000  0.074944  4.212395
2
Frame 916   E = -7.94246983 Ha
LI  0.000000 -0.011130  2.480715
H  -0.000000  0.077480  4.213429
2
Frame 917   E = -7.94256859 Ha
LI  0.000000 -0.011489  2.483855
H  -0.000000  0.079982  4.213367
2
Frame 918   E = -7.94270375 Ha
LI  0.000000 -0.011844  2.487149
H  -0.000000  0.082450  4.212225
2
Frame 919   E = -7.94287160 Ha
LI  0.000000 -0.012193  2.490595
H  -0.000000  0.084884  4.210029
2
Frame 920   E = -7.94306743 Ha
LI  0.000000 -0.012538  2.494187
H  -0.000000  0.087286  4.206814
2
Frame 921   E = -7.94328552 Ha
LI  0.000000 -0.012879  2.497920
H  -0.000000  0.089658  4.202621
2
Frame 922   E = -7.94351925 Ha
LI  0.000000 -0.013216  2.501786
H  -0.000000  0.092003  4.197499
2
Frame 923   E = -7.94376123 Ha
LI  0.000000 -0.013549  2.505777
H  -0.000000  0.094325  4.191507
2
Frame 924   E = -7.94400339 Ha
LI  0.000000 -0.013880  2.509883
H  -0.000000  0.096629  4.184712
2
Frame 925   E = -7.94423726 Ha
LI  0.000000 -0.014210  2.514094
H  -0.000000  0.098922  4.177190
2
Frame 926   E = -7.94445409 Ha
LI  0.000000 -0.014539  2.518397
H  -0.000000  0.101212  4.169025
2
Frame 927   E = -7.94464524 Ha
LI  0.000000 -0.014868  2.522779
H  -0.000000  0.103505  4.160310
2
Frame 928   E = -7.94480244 Ha
LI  0.000000 -0.015200  2.527225
H  -0.000000  0.105813  4.151149
2
Frame 929   E = -7.94491819 Ha
LI  0.000000 -0.015535  2.531720
H  -0.000000  0.108145  4.141650
2
Frame 930   E = -7.94498616 Ha
LI  0.000000 -0.015875  2.536246
H  -0.000000  0.110515  4.131934
2
Frame 931   E = -7.94500166 Ha
LI  0.000000 -0.016223  2.540785
H  -0.000000  0.112936  4.122126
2
Frame 932   E = -7.94496205 Ha
LI  0.000000 -0.016580  2.545319
H  -0.000000  0.115421  4.112359
2
Frame 933   E = -7.94486712 Ha
LI  0.000000 -0.016948  2.549826
H  -0.000000  0.117987  4.102770
2
Frame 934   E = -7.94471945 Ha
LI  0.000000 -0.017331  2.554288
H  -0.000000  0.120651  4.093503
2
Frame 935   E = -7.94452457 Ha
LI  0.000000 -0.017730  2.558683
H  -0.000000  0.123429  4.084701
2
Frame 936   E = -7.94429100 Ha
LI  0.000000 -0.018148  2.562990
H  -0.000000  0.126341  4.076507
2
Frame 937   E = -7.94403008 Ha
LI  0.000000 -0.018588  2.567190
H  -0.000000  0.129404  4.069063
2
Frame 938   E = -7.94375549 Ha
LI  0.000000 -0.019053  2.571262
H  -0.000000  0.132637  4.062504
2
Frame 939   E = -7.94348262 Ha
LI  0.000000 -0.019545  2.575189
H  -0.000000  0.136060  4.056957
2
Frame 940   E = -7.94322760 Ha
LI  0.000000 -0.020066  2.578954
H  -0.000000  0.139689  4.052537
2
Frame 941   E = -7.94300626 Ha
LI  0.000000 -0.020619  2.582543
H  -0.000000  0.143541  4.049345
2
Frame 942   E = -7.94283289 Ha
LI  0.000000 -0.021207  2.585944
H  -0.000000  0.147632  4.047465
2
Frame 943   E = -7.94271916 Ha
LI  0.000000 -0.021831  2.589147
H  -0.000000  0.151974  4.046959
2
Frame 944   E = -7.94267313 Ha
LI  0.000000 -0.022492  2.592146
H  -0.000000  0.156578  4.047869
2
Frame 945   E = -7.94269849 Ha
LI  0.000000 -0.023192  2.594940
H  -0.000000  0.161451  4.050213
2
Frame 946   E = -7.94279428 Ha
LI  0.000000 -0.023931  2.597528
H  -0.000000  0.166599  4.053985
2
Frame 947   E = -7.94295493 Ha
LI  0.000000 -0.024710  2.599916
H  -0.000000  0.172020  4.059156
2
Frame 948   E = -7.94317074 Ha
LI  0.000000 -0.025528  2.602110
H  -0.000000  0.177712  4.065673
2
Frame 949   E = -7.94342872 Ha
LI  0.000000 -0.026383  2.604121
H  -0.000000  0.183668  4.073462
2
Frame 950   E = -7.94371361 Ha
LI  0.000000 -0.027275  2.605963
H  -0.000000  0.189877  4.082432
2
Frame 951   E = -7.94400908 Ha
LI  0.000000 -0.028202  2.607651
H  -0.000000  0.196326  4.092473
2
Frame 952   E = -7.94429892 Ha
LI  0.000000 -0.029160  2.609203
H  -0.000000  0.202995  4.103463
2
Frame 953   E = -7.94456805 Ha
LI  0.000000 -0.030147  2.610637
H  -0.000000  0.209866  4.115270
2
Frame 954   E = -7.94480339 Ha
LI  0.000000 -0.031159  2.611974
H  -0.000000  0.216914  4.127754
2
Frame 955   E = -7.94499448 Ha
LI  0.000000 -0.032193  2.613234
H  -0.000000  0.224115  4.140771
2
Frame 956   E = -7.94513382 Ha
LI  0.000000 -0.033246  2.614439
H  -0.000000  0.231442  4.154176
2
Frame 957   E = -7.94521701 Ha
LI  0.000000 -0.034312  2.615609
H  -0.000000  0.238866  4.167823
2
Frame 958   E = -7.94524262 Ha
LI  0.000000 -0.035389  2.616764
H  -0.000000  0.246360  4.181573
2
Frame 959   E = -7.94521197 Ha
LI  0.000000 -0.036471  2.617925
H  -0.000000  0.253895  4.195286
2
Frame 960   E = -7.94512877 Ha
LI  0.000000 -0.037555  2.619109
H  -0.000000  0.261440  4.208834
2
Frame 961   E = -7.94499869 Ha
LI  0.000000 -0.038636  2.620335
H  -0.000000  0.268968  4.222091
2
Frame 962   E = -7.94482889 Ha
LI  0.000000 -0.039711  2.621619
H  -0.000000  0.276451  4.234942
2
Frame 963   E = -7.94462764 Ha
LI  0.000000 -0.040776  2.622977
H  -0.000000  0.283862  4.247280
2
Frame 964   E = -7.94440382 Ha
LI  0.000000 -0.041826  2.624423
H  -0.000000  0.291174  4.259006
2
Frame 965   E = -7.94416661 Ha
LI  0.000000 -0.042859  2.625970
H  -0.000000  0.298364  4.270031
2
Frame 966   E = -7.94392514 Ha
LI  0.000000 -0.043871  2.627629
H  -0.000000  0.305409  4.280274
2
Frame 967   E = -7.94368821 Ha
LI  0.000000 -0.044859  2.629410
H  -0.000000  0.312286  4.289663
2
Frame 968   E = -7.94346407 Ha
LI  0.000000 -0.045820  2.631324
H  -0.000000  0.318977  4.298135
2
Frame 969   E = -7.94326019 Ha
LI  0.000000 -0.046752  2.633376
H  -0.000000  0.325463  4.305637
2
Frame 970   E = -7.94308321 Ha
LI  0.000000 -0.047652  2.635575
H  -0.000000  0.331727  4.312124
2
Frame 971   E = -7.94293872 Ha
LI  0.000000 -0.048518  2.637925
H  -0.000000  0.337757  4.317557
2
Frame 972   E = -7.94283123 Ha
LI  0.000000 -0.049348  2.640430
H  -0.000000  0.343539  4.321908
2
Frame 973   E = -7.94276412 Ha
LI  0.000000 -0.050142  2.643094
H  -0.000000  0.349064  4.325157
2
Frame 974   E = -7.94273955 Ha
LI  0.000000 -0.050897  2.645917
H  -0.000000  0.354323  4.327290
2
Frame 975   E = -7.94275847 Ha
LI  0.000000 -0.051614  2.648902
H  -0.000000  0.359310  4.328302
2
Frame 976   E = -7.94282057 Ha
LI  0.000000 -0.052291  2.652048
H  -0.000000  0.364023  4.328197
2
Frame 977   E = -7.94292433 Ha
LI  0.000000 -0.052928  2.655352
H  -0.000000  0.368458  4.326984
2
Frame 978   E = -7.94306696 Ha
LI  0.000000 -0.053525  2.658813
H  -0.000000  0.372619  4.324683
2
Frame 979   E = -7.94324452 Ha
LI  0.000000 -0.054084  2.662426
H  -0.000000  0.376508  4.321321
2
Frame 980   E = -7.94345186 Ha
LI  0.000000 -0.054605  2.666187
H  -0.000000  0.380131  4.316932
2
Frame 981   E = -7.94368277 Ha
LI  0.000000 -0.055088  2.670089
H  -0.000000  0.383498  4.311559
2
Frame 982   E = -7.94393005 Ha
LI  0.000000 -0.055537  2.674125
H  -0.000000  0.386621  4.305255
2
Frame 983   E = -7.94418562 Ha
LI  0.000000 -0.055952  2.678286
H  -0.000000  0.389513  4.298078
2
Frame 984   E = -7.94444072 Ha
LI  0.000000 -0.056337  2.682563
H  -0.000000  0.392194  4.290099
2
Frame 985   E = -7.94468611 Ha
LI  0.000000 -0.056695  2.686943
H  -0.000000  0.394685  4.281395
2
Frame 986   E = -7.94491235 Ha
LI  0.000000 -0.057029  2.691416
H  -0.000000  0.397009  4.272052
2
Frame 987   E = -7.94511010 Ha
LI  0.000000 -0.057343  2.695966
H  -0.000000  0.399195  4.262166
2
Frame 988   E = -7.94527053 Ha
LI  0.000000 -0.057642  2.700580
H  -0.000000  0.401274  4.251842
2
Frame 989   E = -7.94538573 Ha
LI  0.000000 -0.057930  2.705240
H  -0.000000  0.403282  4.241192
2
Frame 990   E = -7.94544918 Ha
LI  0.000000 -0.058213  2.709929
H  -0.000000  0.405255  4.230336
2
Frame 991   E = -7.94545624 Ha
LI  0.000000 -0.058498  2.714630
H  -0.000000  0.407236  4.219403
2
Frame 992   E = -7.94540462 Ha
LI  0.000000 -0.058790  2.719323
H  -0.000000  0.409270  4.208526
2
Frame 993   E = -7.94529483 Ha
LI  0.000000 -0.059097  2.723988
H  -0.000000  0.411403  4.197844
2
Frame 994   E = -7.94513045 Ha
LI  0.000000 -0.059424  2.728604
H  -0.000000  0.413685  4.187498
2
Frame 995   E = -7.94491833 Ha
LI  0.000000 -0.059781  2.733152
H  -0.000000  0.416168  4.177632
2
Frame 996   E = -7.94466856 Ha
LI  0.000000 -0.060174  2.737610
H  -0.000000  0.418903  4.168385
2
Frame 997   E = -7.94439414 Ha
LI  0.000000 -0.060611  2.741960
H  -0.000000  0.421942  4.159896
2
Frame 998   E = -7.94411042 Ha
LI  0.000000 -0.061098  2.746182
H  -0.000000  0.425337  4.152295
2
Frame 999   E = -7.94383425 Ha
LI  0.000000 -0.061644  2.750260
H  -0.000000  0.429137  4.145702
