2
Frame 0   E = -7.91442564 Ha
LI -0.000000 -0.000006 -0.000241
H   0.000000  0.000041  1.201677
2
Frame 1   E = -7.91565770 Ha
LI -0.000000 -0.000023 -0.000959
H   0.000000  0.000163  1.206678
2
Frame 2   E = -7.91761825 Ha
LI -0.000000 -0.000053 -0.002143
H   0.000000  0.000366  1.214918
2
Frame 3   E = -7.92017977 Ha
LI -0.000000 -0.000093 -0.003772
H   0.000000  0.000649  1.226258
2
Frame 4   E = -7.92318491 Ha
LI -0.000000 -0.000145 -0.005820
H   0.000000  0.001013  1.240516
2
Frame 5   E = -7.92646273 Ha
LI -0.000000 -0.000209 -0.008256
H   0.000000  0.001455  1.257473
2
Frame 6   E = -7.92984416 Ha
LI -0.000000 -0.000283 -0.011044
H   0.000000  0.001973  1.276882
2
Frame 7   E = -7.93317466 Ha
LI -0.000000 -0.000369 -0.014147
H   0.000000  0.002567  1.298482
2
Frame 8   E = -7.93632296 Ha
LI -0.000000 -0.000465 -0.017525
H   0.000000  0.003234  1.322001
2
Frame 9   E = -7.93918579 Ha
LI -0.000000 -0.000570 -0.021140
H   0.000000  0.003970  1.347169
2
Frame 10   E = -7.94168905 Ha
LI -0.000000 -0.000686 -0.024954
H   0.000000  0.004772  1.373720
2
Frame 11   E = -7.94378624 Ha
LI -0.000000 -0.000810 -0.028931
H   0.000000  0.005637  1.401401
2
Frame 12   E = -7.94545511 Ha
LI -0.000000 -0.000942 -0.033035
H   0.000000  0.006559  1.429973
2
Frame 13   E = -7.94669349 Ha
LI -0.000000 -0.001082 -0.037235
H   0.000000  0.007534  1.459211
2
Frame 14   E = -7.94751477 Ha
LI -0.000000 -0.001229 -0.041501
H   0.000000  0.008558  1.488912
2
Frame 15   E = -7.94794371 Ha
LI -0.000000 -0.001382 -0.045807
H   0.000000  0.009624  1.518888
2
Frame 16   E = -7.94801264 Ha
LI -0.000000 -0.001541 -0.050128
H   0.000000  0.010728  1.548970
2
Frame 17   E = -7.94775841 Ha
LI -0.000000 -0.001704 -0.054443
H   0.000000  0.011864  1.579007
2
Frame 18   E = -7.94721985 Ha
LI -0.000000 -0.001871 -0.058732
H   0.000000  0.013026  1.608864
2
Frame 19   E = -7.94643598 Ha
LI -0.000000 -0.002041 -0.062978
H   0.000000  0.014209  1.638421
2
Frame 20   E = -7.94544463 Ha
LI -0.000000 -0.002213 -0.067165
H   0.000000  0.015407  1.667572
2
Frame 21   E = -7.94428155 Ha
LI -0.000000 -0.002387 -0.071281
H   0.000000  0.016614  1.696223
2
Frame 22   E = -7.94297989 Ha
LI -0.000000 -0.002561 -0.075313
H   0.000000  0.017826  1.724292
2
Frame 23   E = -7.94156991 Ha
LI -0.000000 -0.002735 -0.079251
H   0.000000  0.019038  1.751708
2
Frame 24   E = -7.94007887 Ha
LI -0.000000 -0.002908 -0.083086
H   0.000000  0.020243  1.778408
2
Frame 25   E = -7.93853107 Ha
LI -0.000000 -0.003079 -0.086811
H   0.000000  0.021438  1.804338
2
Frame 26   E = -7.93694802 Ha
LI -0.000000 -0.003249 -0.090418
H   0.000000  0.022617  1.829449
2
Frame 27   E = -7.93534860 Ha
LI -0.000000 -0.003416 -0.093902
H   0.000000  0.023777  1.853700
2
Frame 28   E = -7.93374927 Ha
LI -0.000000 -0.003579 -0.097257
H   0.000000  0.024913  1.877056
2
Frame 29   E = -7.93216433 Ha
LI -0.000000 -0.003738 -0.100479
H   0.000000  0.026021  1.899484
2
Frame 30   E = -7.93060611 Ha
LI -0.000000 -0.003892 -0.103563
H   0.000000  0.027097  1.920960
2
Frame 31   E = -7.92908523 Ha
LI -0.000000 -0.004042 -0.106508
H   0.000000  0.028138  1.941459
2
Frame 32   E = -7.92761078 Ha
LI -0.000000 -0.004186 -0.109309
H   0.000000  0.029140  1.960960
2
Frame 33   E = -7.92619051 Ha
LI -0.000000 -0.004324 -0.111965
H   0.000000  0.030099  1.979448
2
Frame 34   E = -7.92483102 Ha
LI -0.000000 -0.004455 -0.114473
H   0.000000  0.031014  1.996907
2
Frame 35   E = -7.92353789 Ha
LI -0.000000 -0.004580 -0.116831
H   0.000000  0.031881  2.013324
2
Frame 36   E = -7.92231584 Ha
LI -0.000000 -0.004697 -0.119038
H   0.000000  0.032698  2.028688
2
Frame 37   E = -7.92116885 Ha
LI -0.000000 -0.004807 -0.121093
H   0.000000  0.033462  2.042991
2
Frame 38   E = -7.92010023 Ha
LI -0.000000 -0.004909 -0.122994
H   0.000000  0.034171  2.056224
2
Frame 39   E = -7.91911277 Ha
LI -0.000000 -0.005002 -0.124740
H   0.000000  0.034823  2.068380
2
Frame 40   E = -7.91820877 Ha
LI -0.000000 -0.005087 -0.126331
H   0.000000  0.035416  2.079454
2
Frame 41   E = -7.91739015 Ha
LI -0.000000 -0.005164 -0.127765
H   0.000000  0.035949  2.089440
2
Frame 42   E = -7.91665848 Ha
LI -0.000000 -0.005232 -0.129043
H   0.000000  0.036419  2.098335
2
Frame 43   E = -7.91601503 Ha
LI -0.000000 -0.005290 -0.130163
H   0.000000  0.036827  2.106136
2
Frame 44   E = -7.91546085 Ha
LI -0.000000 -0.005339 -0.131126
H   0.000000  0.037170  2.112839
2
Frame 45   E = -7.91499676 Ha
LI -0.000000 -0.005379 -0.131931
H   0.000000  0.037448  2.118442
2
Frame 46   E = -7.91462340 Ha
LI -0.000000 -0.005410 -0.132578
H   0.000000  0.037660  2.122944
2
Frame 47   E = -7.91434128 Ha
LI -0.000000 -0.005431 -0.133066
H   0.000000  0.037805  2.126343
2
Frame 48   E = -7.91415074 Ha
LI -0.000000 -0.005442 -0.133396
H   0.000000  0.037883  2.128638
2
Frame 49   E = -7.91405201 Ha
LI -0.000000 -0.005443 -0.133567
H   0.000000  0.037893  2.129828
2
Frame 50   E = -7.91404521 Ha
LI -0.000000 -0.005435 -0.133579
H   0.000000  0.037836  2.129914
2
Frame 51   E = -7.91413034 Ha
LI -0.000000 -0.005417 -0.133433
H   0.000000  0.037712  2.128895
2
Frame 52   E = -7.91430730 Ha
LI -0.000000 -0.005390 -0.133127
H   0.000000  0.037519  2.126771
2
Frame 53   E = -7.91457587 Ha
LI -0.000000 -0.005352 -0.132664
H   0.000000  0.037260  2.123542
2
Frame 54   E = -7.91493572 Ha
LI -0.000000 -0.005306 -0.132042
H   0.000000  0.036934  2.119211
2
Frame 55   E = -7.91538636 Ha
LI -0.000000 -0.005249 -0.131261
H   0.000000  0.036543  2.113779
2
Frame 56   E = -7.91592717 Ha
LI -0.000000 -0.005184 -0.130323
H   0.000000  0.036086  2.107246
2
Frame 57   E = -7.91655734 Ha
LI -0.000000 -0.005109 -0.129227
H   0.000000  0.035565  2.099615
2
Frame 58   E = -7.91727588 Ha
LI -0.000000 -0.005025 -0.127973
H   0.000000  0.034982  2.090890
2
Frame 59   E = -7.91808152 Ha
LI -0.000000 -0.004932 -0.126563
H   0.000000  0.034337  2.081073
2
Frame 60   E = -7.91897275 Ha
LI -0.000000 -0.004831 -0.124997
H   0.000000  0.033632  2.070168
2
Frame 61   E = -7.91994770 Ha
LI -0.000000 -0.004721 -0.123275
H   0.000000  0.032868  2.058180
2
Frame 62   E = -7.92100412 Ha
LI -0.000000 -0.004604 -0.121398
H   0.000000  0.032048  2.045114
2
Frame 63   E = -7.92213930 Ha
LI -0.000000 -0.004478 -0.119367
H   0.000000  0.031174  2.030978
2
Frame 64   E = -7.92335001 Ha
LI -0.000000 -0.004345 -0.117184
H   0.000000  0.030248  2.015779
2
Frame 65   E = -7.92463238 Ha
LI -0.000000 -0.004205 -0.114849
H   0.000000  0.029272  1.999526
2
Frame 66   E = -7.92598180 Ha
LI -0.000000 -0.004058 -0.112365
H   0.000000  0.028249  1.982229
2
Frame 67   E = -7.92739283 Ha
LI -0.000000 -0.003905 -0.109732
H   0.000000  0.027181  1.963902
2
Frame 68   E = -7.92885904 Ha
LI -0.000000 -0.003745 -0.106953
H   0.000000  0.026073  1.944558
2
Frame 69   E = -7.93037284 Ha
LI -0.000000 -0.003581 -0.104031
H   0.000000  0.024926  1.924216
2
Frame 70   E = -7.93192539 Ha
LI -0.000000 -0.003411 -0.100968
H   0.000000  0.023745  1.902893
2
Frame 71   E = -7.93350630 Ha
LI -0.000000 -0.003237 -0.097768
H   0.000000  0.022533  1.880613
2
Frame 72   E = -7.93510352 Ha
LI -0.000000 -0.003059 -0.094434
H   0.000000  0.021293  1.857403
2
Frame 73   E = -7.93670307 Ha
LI -0.000000 -0.002877 -0.090970
H   0.000000  0.020031  1.833292
2
Frame 74   E = -7.93828886 Ha
LI -0.000000 -0.002693 -0.087382
H   0.000000  0.018750  1.808316
2
Frame 75   E = -7.93984239 Ha
LI -0.000000 -0.002507 -0.083676
H   0.000000  0.017454  1.782515
2
Frame 76   E = -7.94134260 Ha
LI -0.000000 -0.002320 -0.079858
H   0.000000  0.016148  1.755936
2
Frame 77   E = -7.94276564 Ha
LI -0.000000 -0.002131 -0.075936
H   0.000000  0.014837  1.728632
2
Frame 78   E = -7.94408472 Ha
LI -0.000000 -0.001943 -0.071919
H   0.000000  0.013526  1.700665
2
Frame 79   E = -7.94527010 Ha
LI -0.000000 -0.001755 -0.067816
H   0.000000  0.012220  1.672105
2
Frame 80   E = -7.94628908 Ha
LI -0.000000 -0.001569 -0.063640
H   0.000000  0.010924  1.643033
2
Frame 81   E = -7.94710633 Ha
LI -0.000000 -0.001385 -0.059403
H   0.000000  0.009644  1.613539
2
Frame 82   E = -7.94768433 Ha
LI -0.000000 -0.001204 -0.055121
H   0.000000  0.008384  1.583728
2
Frame 83   E = -7.94798423 Ha
LI -0.000000 -0.001027 -0.050810
H   0.000000  0.007150  1.553718
2
Frame 84   E = -7.94796713 Ha
LI -0.000000 -0.000854 -0.046490
H   0.000000  0.005947  1.523641
2
Frame 85   E = -7.94759578 Ha
LI -0.000000 -0.000687 -0.042181
H   0.000000  0.004781  1.493646
2
Frame 86   E = -7.94683704 Ha
LI -0.000000 -0.000525 -0.037908
H   0.000000  0.003656  1.463900
2
Frame 87   E = -7.94566479 Ha
LI -0.000000 -0.000370 -0.033697
H   0.000000  0.002577  1.434585
2
Frame 88   E = -7.94406365 Ha
LI -0.000000 -0.000222 -0.029577
H   0.000000  0.001549  1.405904
2
Frame 89   E = -7.94203314 Ha
LI -0.000000 -0.000083 -0.025580
H   0.000000  0.000575  1.378077
2
Frame 90   E = -7.93959207 Ha
LI -0.000000  0.000049 -0.021740
H   0.000000 -0.000342  1.351341
2
Frame 91   E = -7.93678291 Ha
LI -0.000000  0.000172 -0.018092
H   0.000000 -0.001198  1.325949
2
Frame 92   E = -7.93367522 Ha
LI -0.000000  0.000286 -0.014675
H   0.000000 -0.001991  1.302162
2
Frame 93   E = -7.93036759 Ha
LI -0.000000  0.000391 -0.011528
H   0.000000 -0.002719  1.280251
2
Frame 94   E = -7.92698694 Ha
LI -0.000000  0.000486 -0.008689
H   0.000000 -0.003382  1.260488
2
Frame 95   E = -7.92368443 Ha
LI -0.000000  0.000572 -0.006196
H   0.000000 -0.003979  1.243136
2
Frame 96   E = -7.92062734 Ha
LI -0.000000  0.000648 -0.004086
H   0.000000 -0.004510  1.228444
2
Frame 97   E = -7.91798699 Ha
LI -0.000000  0.000715 -0.002390
H   0.000000 -0.004975  1.216636
2
Frame 98   E = -7.91592368 Ha
LI -0.000000  0.000772 -0.001135
H   0.000000 -0.005375  1.207900
2
Frame 99   E = -7.91457043 Ha
LI -0.000000  0.000820 -0.000342
H   0.000000 -0.005712  1.202383
2
Frame 100   E = -7.91401809 Ha
LI -0.000000  0.000860 -0.000026
H   0.000000 -0.005985  1.200179
2
Frame 101   E = -7.91430453 Ha
LI -0.000000  0.000890 -0.000190
H   0.000000 -0.006196  1.201326
2
Frame 102   E = -7.91540991 Ha
LI -0.000000  0.000912 -0.000834
H   0.000000 -0.006346  1.205803
2
Frame 103   E = -7.91725922 Ha
LI -0.000000  0.000924 -0.001944
H   0.000000 -0.006434  1.213535
2
Frame 104   E = -7.91973129 Ha
LI -0.000000  0.000928 -0.003504
H   0.000000 -0.006462  1.224390
2
Frame 105   E = -7.92267272 Ha
LI -0.000000  0.000924 -0.005486
H   0.000000 -0.006429  1.238193
2
Frame 106   E = -7.92591397 Ha
LI -0.000000  0.000910 -0.007862
H   0.000000 -0.006336  1.254731
2
Frame 107   E = -7.92928507 Ha
LI -0.000000  0.000888 -0.010595
H   0.000000 -0.006184  1.273760
2
Frame 108   E = -7.93262874 Ha
LI -0.000000  0.000858 -0.013650
H   0.000000 -0.005972  1.295022
2
Frame 109   E = -7.93580986 Ha
LI -0.000000  0.000819 -0.016986
H   0.000000 -0.005701  1.318246
2
Frame 110   E = -7.93872070 Ha
LI -0.000000  0.000772 -0.020565
H   0.000000 -0.005373  1.343161
2
Frame 111   E = -7.94128270 Ha
LI -0.000000  0.000717 -0.024348
H   0.000000 -0.004990  1.369502
2
Frame 112   E = -7.94344519 Ha
LI -0.000000  0.000654 -0.028300
H   0.000000 -0.004553  1.397013
2
Frame 113   E = -7.94518233 Ha
LI -0.000000  0.000584 -0.032385
H   0.000000 -0.004064  1.425451
2
Frame 114   E = -7.94648903 Ha
LI -0.000000  0.000507 -0.036571
H   0.000000 -0.003528  1.454592
2
Frame 115   E = -7.94737644 Ha
LI -0.000000  0.000423 -0.040828
H   0.000000 -0.002946  1.484228
2
Frame 116   E = -7.94786766 Ha
LI -0.000000  0.000334 -0.045129
H   0.000000 -0.002323  1.514169
2
Frame 117   E = -7.94799397 Ha
LI -0.000000  0.000239 -0.049449
H   0.000000 -0.001663  1.544244
2
Frame 118   E = -7.94779157 Ha
LI -0.000000  0.000139 -0.053767
H   0.000000 -0.000970  1.574298
2
Frame 119   E = -7.94729902 Ha
LI -0.000000  0.000036 -0.058061
H   0.000000 -0.000248  1.604195
2
Frame 120   E = -7.94655532 Ha
LI -0.000000 -0.000072 -0.062315
H   0.000000  0.000499  1.633811
2
Frame 121   E = -7.94559846 Ha
LI -0.000000 -0.000182 -0.066514
H   0.000000  0.001265  1.663039
2
Frame 122   E = -7.94446450 Ha
LI -0.000000 -0.000294 -0.070643
H   0.000000  0.002047  1.691783
2
Frame 123   E = -7.94318695 Ha
LI -0.000000 -0.000408 -0.074691
H   0.000000  0.002840  1.719960
2
Frame 124   E = -7.94179648 Ha
LI -0.000000 -0.000523 -0.078646
H   0.000000  0.003639  1.747497
2
Frame 125   E = -7.94032076 Ha
LI -0.000000 -0.000638 -0.082500
H   0.000000  0.004440  1.774329
2
Frame 126   E = -7.93878451 Ha
LI -0.000000 -0.000753 -0.086246
H   0.000000  0.005239  1.800401
2
Frame 127   E = -7.93720963 Ha
LI -0.000000 -0.000866 -0.089874
H   0.000000  0.006031  1.825664
2
Frame 128   E = -7.93561536 Ha
LI -0.000000 -0.000979 -0.093381
H   0.000000  0.006814  1.850075
2
Frame 129   E = -7.93401851 Ha
LI -0.000000 -0.001089 -0.096760
H   0.000000  0.007582  1.873598
2
Frame 130   E = -7.93243365 Ha
LI -0.000000 -0.001197 -0.100007
H   0.000000  0.008333  1.896201
2
Frame 131   E = -7.93087341 Ha
LI -0.000000 -0.001302 -0.103118
H   0.000000  0.009062  1.917857
2
Frame 132   E = -7.92934863 Ha
LI -0.000000 -0.001403 -0.106089
H   0.000000  0.009767  1.938542
2
Frame 133   E = -7.92786860 Ha
LI -0.000000 -0.001500 -0.108918
H   0.000000  0.010444  1.958235
2
Frame 134   E = -7.92644127 Ha
LI -0.000000 -0.001593 -0.111602
H   0.000000  0.011091  1.976919
2
Frame 135   E = -7.92507338 Ha
LI -0.000000 -0.001681 -0.114138
H   0.000000  0.011704  1.994578
2
Frame 136   E = -7.92377066 Ha
LI -0.000000 -0.001764 -0.116526
H   0.000000  0.012281  2.011199
2
Frame 137   E = -7.92253795 Ha
LI -0.000000 -0.001841 -0.118763
H   0.000000  0.012819  2.026772
2
Frame 138   E = -7.92137929 Ha
LI -0.000000 -0.001913 -0.120848
H   0.000000  0.013317  2.041287
2
Frame 139   E = -7.92029812 Ha
LI -0.000000 -0.001978 -0.122780
H   0.000000  0.013773  2.054734
2
Frame 140   E = -7.91929728 Ha
LI -0.000000 -0.002037 -0.124557
H   0.000000  0.014183  2.067109
2
Frame 141   E = -7.91837913 Ha
LI -0.000000 -0.002090 -0.126180
H   0.000000  0.014547  2.078404
2
Frame 142   E = -7.91754564 Ha
LI -0.000000 -0.002135 -0.127646
H   0.000000  0.014864  2.088614
2
Frame 143   E = -7.91679842 Ha
LI -0.000000 -0.002173 -0.128957
H   0.000000  0.015131  2.097737
2
Frame 144   E = -7.91613879 Ha
LI -0.000000 -0.002205 -0.130110
H   0.000000  0.015347  2.105767
2
Frame 145   E = -7.91556781 Ha
LI -0.000000 -0.002228 -0.131107
H   0.000000  0.015512  2.112702
2
Frame 146   E = -7.91508634 Ha
LI -0.000000 -0.002244 -0.131945
H   0.000000  0.015624  2.118540
2
Frame 147   E = -7.91469504 Ha
LI -0.000000 -0.002253 -0.132626
H   0.000000  0.015683  2.123279
2
Frame 148   E = -7.91439443 Ha
LI -0.000000 -0.002254 -0.133149
H   0.000000  0.015689  2.126918
2
Frame 149   E = -7.91418488 Ha
LI -0.000000 -0.002247 -0.133513
H   0.000000  0.015640  2.129454
2
Frame 150   E = -7.91406664 Ha
LI -0.000000 -0.002232 -0.133719
H   0.000000  0.015537  2.130889
2
Frame 151   E = -7.91403983 Ha
LI -0.000000 -0.002209 -0.133767
H   0.000000  0.015379  2.131221
2
Frame 152   E = -7.91410449 Ha
LI -0.000000 -0.002179 -0.133656
H   0.000000  0.015166  2.130450
2
Frame 153   E = -7.91426053 Ha
LI -0.000000 -0.002140 -0.133387
H   0.000000  0.014900  2.128576
2
Frame 154   E = -7.91450775 Ha
LI -0.000000 -0.002094 -0.132959
H   0.000000  0.014579  2.125601
2
Frame 155   E = -7.91484584 Ha
LI -0.000000 -0.002040 -0.132374
H   0.000000  0.014205  2.121524
2
Frame 156   E = -7.91527437 Ha
LI -0.000000 -0.001979 -0.131630
H   0.000000  0.013778  2.116347
2
Frame 157   E = -7.91579274 Ha
LI -0.000000 -0.001910 -0.130729
H   0.000000  0.013299  2.110073
2
Frame 158   E = -7.91640020 Ha
LI -0.000000 -0.001834 -0.129670
H   0.000000  0.012770  2.102702
2
Frame 159   E = -7.91709580 Ha
LI -0.000000 -0.001751 -0.128454
H   0.000000  0.012191  2.094238
2
Frame 160   E = -7.91787836 Ha
LI -0.000000 -0.001661 -0.127082
H   0.000000  0.011563  2.084683
2
Frame 161   E = -7.91874644 Ha
LI -0.000000 -0.001564 -0.125553
H   0.000000  0.010888  2.074042
2
Frame 162   E = -7.91969827 Ha
LI -0.000000 -0.001461 -0.123869
H   0.000000  0.010168  2.062318
2
Frame 163   E = -7.92073172 Ha
LI -0.000000 -0.001351 -0.122030
H   0.000000  0.009405  2.049519
2
Frame 164   E = -7.92184423 Ha
LI -0.000000 -0.001235 -0.120038
H   0.000000  0.008601  2.035648
2
Frame 165   E = -7.92303273 Ha
LI -0.000000 -0.001114 -0.117893
H   0.000000  0.007757  2.020715
2
Frame 166   E = -7.92429353 Ha
LI -0.000000 -0.000988 -0.115596
H   0.000000  0.006876  2.004728
2
Frame 167   E = -7.92562227 Ha
LI -0.000000 -0.000856 -0.113150
H   0.000000  0.005961  1.987696
2
Frame 168   E = -7.92701377 Ha
LI -0.000000 -0.000720 -0.110555
H   0.000000  0.005014  1.969633
2
Frame 169   E = -7.92846189 Ha
LI -0.000000 -0.000580 -0.107814
H   0.000000  0.004038  1.950552
2
Frame 170   E = -7.92995944 Ha
LI -0.000000 -0.000436 -0.104929
H   0.000000  0.003036  1.930469
2
Frame 171   E = -7.93149796 Ha
LI -0.000000 -0.000289 -0.101903
H   0.000000  0.002011  1.909402
2
Frame 172   E = -7.93306754 Ha
LI -0.000000 -0.000139 -0.098739
H   0.000000  0.000968  1.887375
2
Frame 173   E = -7.93465669 Ha
LI -0.000000  0.000013 -0.095440
H   0.000000 -0.000092  1.864411
2
Frame 174   E = -7.93625204 Ha
LI -0.000000  0.000167 -0.092012
H   0.000000 -0.001164  1.840541
2
Frame 175   E = -7.93783816 Ha
LI -0.000000  0.000322 -0.088457
H   0.000000 -0.002244  1.815798
2
Frame 176   E = -7.93939734 Ha
LI -0.000000  0.000478 -0.084783
H   0.000000 -0.003329  1.790220
2
Frame 177   E = -7.94090934 Ha
LI -0.000000  0.000634 -0.080995
H   0.000000 -0.004415  1.763852
2
Frame 178   E = -7.94235122 Ha
LI -0.000000  0.000790 -0.077102
H   0.000000 -0.005496  1.736747
2
Frame 179   E = -7.94369715 Ha
LI -0.000000  0.000944 -0.073111
H   0.000000 -0.006570  1.708962
2
Frame 180   E = -7.94491834 Ha
LI -0.000000  0.001096 -0.069032
H   0.000000 -0.007632  1.680566
2
Frame 181   E = -7.94598308 Ha
LI -0.000000  0.001247 -0.064876
H   0.000000 -0.008678  1.651635
2
Frame 182   E = -7.94685688 Ha
LI -0.000000  0.001394 -0.060656
H   0.000000 -0.009704  1.622258
2
Frame 183   E = -7.94750298 Ha
LI -0.000000  0.001538 -0.056386
H   0.000000 -0.010706  1.592535
2
Frame 184   E = -7.94788298 Ha
LI -0.000000  0.001678 -0.052083
H   0.000000 -0.011680  1.562579
2
Frame 185   E = -7.94795803 Ha
LI -0.000000  0.001813 -0.047765
H   0.000000 -0.012622  1.532518
2
Frame 186   E = -7.94769041 Ha
LI -0.000000  0.001943 -0.043452
H   0.000000 -0.013529  1.502496
2
Frame 187   E = -7.94704569 Ha
LI -0.000000  0.002068 -0.039169
H   0.000000 -0.014400  1.472673
2
Frame 188   E = -7.94599556 Ha
LI -0.000000  0.002188 -0.034939
H   0.000000 -0.015230  1.443229
2
Frame 189   E = -7.94452129 Ha
LI -0.000000  0.002301 -0.030792
H   0.000000 -0.016019  1.414358
2
Frame 190   E = -7.94261768 Ha
LI -0.000000  0.002408 -0.026758
H   0.000000 -0.016767  1.386276
2
Frame 191   E = -7.94029749 Ha
LI -0.000000  0.002510 -0.022871
H   0.000000 -0.017471  1.359214
2
Frame 192   E = -7.93759581 Ha
LI -0.000000  0.002605 -0.019165
H   0.000000 -0.018135  1.333420
2
Frame 193   E = -7.93457378 Ha
LI -0.000000  0.002694 -0.015679
H   0.000000 -0.018758  1.309152
2
Frame 194   E = -7.93132107 Ha
LI -0.000000  0.002779 -0.012451
H   0.000000 -0.019343  1.286678
2
Frame 195   E = -7.92795607 Ha
LI -0.000000  0.002858 -0.009520
H   0.000000 -0.019894  1.266270
2
Frame 196   E = -7.92462281 Ha
LI -0.000000  0.002932 -0.006923
H   0.000000 -0.020414  1.248194
2
Frame 197   E = -7.92148415 Ha
LI -0.000000  0.003003 -0.004698
H   0.000000 -0.020906  1.232703
2
Frame 198   E = -7.91871088 Ha
LI -0.000000  0.003071 -0.002877
H   0.000000 -0.021377  1.220028
2
Frame 199   E = -7.91646743 Ha
LI -0.000000  0.003136 -0.001489
H   0.000000 -0.021829  1.210369
2
Frame 200   E = -7.91489585 Ha
LI -0.000000  0.003198 -0.000558
H   0.000000 -0.022266  1.203884
2
Frame 201   E = -7.91410037 Ha
LI -0.000000  0.003260 -0.000098
H   0.000000 -0.022692  1.200684
2
Frame 202   E = -7.91413511 Ha
LI -0.000000  0.003320 -0.000118
H   0.000000 -0.023110  1.200824
2
Frame 203   E = -7.91499754 Ha
LI -0.000000  0.003378 -0.000618
H   0.000000 -0.023519  1.204301
2
Frame 204   E = -7.91662874 Ha
LI -0.000000  0.003436 -0.001588
H   0.000000 -0.023921  1.211055
2
Frame 205   E = -7.91892063 Ha
LI -0.000000  0.003493 -0.003012
H   0.000000 -0.024315  1.220971
2
Frame 206   E = -7.92172858 Ha
LI -0.000000  0.003548 -0.004868
H   0.000000 -0.024699  1.233887
2
Frame 207   E = -7.92488702 Ha
LI -0.000000  0.003601 -0.007125
H   0.000000 -0.025069  1.249601
2
Frame 208   E = -7.92822542 Ha
LI -0.000000  0.003652 -0.009750
H   0.000000 -0.025423  1.267878
2
Frame 209   E = -7.93158229 Ha
LI -0.000000  0.003700 -0.012708
H   0.000000 -0.025758  1.288464
2
Frame 210   E = -7.93481572 Ha
LI -0.000000  0.003745 -0.015958
H   0.000000 -0.026069  1.311092
2
Frame 211   E = -7.93780992 Ha
LI -0.000000  0.003786 -0.019463
H   0.000000 -0.026353  1.335492
2
Frame 212   E = -7.94047784 Ha
LI -0.000000  0.003822 -0.023184
H   0.000000 -0.026608  1.361395
2
Frame 213   E = -7.94276082 Ha
LI -0.000000  0.003854 -0.027084
H   0.000000 -0.026830  1.388545
2
Frame 214   E = -7.94462598 Ha
LI -0.000000  0.003881 -0.031128
H   0.000000 -0.027018  1.416695
2
Frame 215   E = -7.94606232 Ha
LI -0.000000  0.003903 -0.035282
H   0.000000 -0.027171  1.445615
2
Frame 216   E = -7.94707641 Ha
LI -0.000000  0.003920 -0.039516
H   0.000000 -0.027288  1.475093
2
Frame 217   E = -7.94768797 Ha
LI -0.000000  0.003931 -0.043803
H   0.000000 -0.027369  1.504934
2
Frame 218   E = -7.94792593 Ha
LI -0.000000  0.003938 -0.048116
H   0.000000 -0.027414  1.534962
2
Frame 219   E = -7.94782506 Ha
LI -0.000000  0.003939 -0.052434
H   0.000000 -0.027425  1.565018
2
Frame 220   E = -7.94742320 Ha
LI -0.000000  0.003936 -0.056734
H   0.000000 -0.027403  1.594959
2
Frame 221   E = -7.94675916 Ha
LI -0.000000  0.003929 -0.061001
H   0.000000 -0.027351  1.624659
2
Frame 222   E = -7.94587115 Ha
LI -0.000000  0.003917 -0.065216
H   0.000000 -0.027270  1.654006
2
Frame 223   E = -7.94479570 Ha
LI -0.000000  0.003902 -0.069367
H   0.000000 -0.027164  1.682901
2
Frame 224   E = -7.94356697 Ha
LI -0.000000  0.003883 -0.073440
H   0.000000 -0.027034  1.711257
2
Frame 225   E = -7.94221635 Ha
LI -0.000000  0.003862 -0.077425
H   0.000000 -0.026884  1.738998
2
Frame 226   E = -7.94077231 Ha
LI -0.000000  0.003838 -0.081312
H   0.000000 -0.026718  1.766058
2
Frame 227   E = -7.93926034 Ha
LI -0.000000  0.003812 -0.085093
H   0.000000 -0.026537  1.792377
2
Frame 228   E = -7.93770309 Ha
LI -0.000000  0.003784 -0.088760
H   0.000000 -0.026345  1.817907
2
Frame 229   E = -7.93612048 Ha
LI -0.000000  0.003756 -0.092307
H   0.000000 -0.026146  1.842601
2
Frame 230   E = -7.93452997 Ha
LI -0.000000  0.003726 -0.095729
H   0.000000 -0.025942  1.866422
2
Frame 231   E = -7.93294674 Ha
LI -0.000000  0.003697 -0.099021
H   0.000000 -0.025735  1.889337
2
Frame 232   E = -7.93138392 Ha
LI -0.000000  0.003667 -0.102178
H   0.000000 -0.025530  1.911317
2
Frame 233   E = -7.92985282 Ha
LI -0.000000  0.003638 -0.105198
H   0.000000 -0.025329  1.932338
2
Frame 234   E = -7.92836316 Ha
LI -0.000000  0.003610 -0.108076
H   0.000000 -0.025134  1.952377
2
Frame 235   E = -7.92692322 Ha
LI -0.000000  0.003584 -0.110811
H   0.000000 -0.024949  1.971416
2
Frame 236   E = -7.92554009 Ha
LI -0.000000  0.003559 -0.113400
H   0.000000 -0.024775  1.989439
2
Frame 237   E = -7.92421974 Ha
LI -0.000000  0.003536 -0.115841
H   0.000000 -0.024615  2.006433
2
Frame 238   E = -7.92296725 Ha
LI -0.000000  0.003515 -0.118133
H   0.000000 -0.024471  2.022386
2
Frame 239   E = -7.92178688 Ha
LI -0.000000  0.003497 -0.120274
H   0.000000 -0.024345  2.037288
2
Frame 240   E = -7.92068222 Ha
LI -0.000000  0.003482 -0.122262
H   0.000000 -0.024239  2.051130
2
Frame 241   E = -7.91965627 Ha
LI -0.000000  0.003470 -0.124097
H   0.000000 -0.024155  2.063904
2
Frame 242   E = -7.91871151 Ha
LI -0.000000  0.003461 -0.125778
H   0.000000 -0.024094  2.075606
2
Frame 243   E = -7.91785003 Ha
LI -0.000000  0.003456 -0.127304
H   0.000000 -0.024058  2.086229
2
Frame 244   E = -7.91707351 Ha
LI -0.000000  0.003454 -0.128674
H   0.000000 -0.024048  2.095769
2
Frame 245   E = -7.91638336 Ha
LI -0.000000  0.003457 -0.129888
H   0.000000 -0.024065  2.104222
2
Frame 246   E = -7.91578070 Ha
LI -0.000000  0.003463 -0.130946
H   0.000000 -0.024110  2.111586
2
Frame 247   E = -7.91526645 Ha
LI -0.000000  0.003474 -0.131847
H   0.000000 -0.024185  2.117857
2
Frame 248   E = -7.91484133 Ha
LI -0.000000  0.003489 -0.132591
H   0.000000 -0.024289  2.123034
2
Frame 249   E = -7.91450588 Ha
LI -0.000000  0.003508 -0.133177
H   0.000000 -0.024423  2.127116
2
Frame 250   E = -7.91426053 Ha
LI -0.000000  0.003532 -0.133606
H   0.000000 -0.024589  2.130100
2
Frame 251   E = -7.91410555 Ha
LI -0.000000  0.003560 -0.133877
H   0.000000 -0.024785  2.131987
2
Frame 252   E = -7.91404113 Ha
LI -0.000000  0.003593 -0.133990
H   0.000000 -0.025013  2.132775
2
Frame 253   E = -7.91406732 Ha
LI -0.000000  0.003630 -0.133945
H   0.000000 -0.025271  2.132464
2
Frame 254   E = -7.91418408 Ha
LI -0.000000  0.003672 -0.133743
H   0.000000 -0.025561  2.131055
2
Frame 255   E = -7.91439127 Ha
LI -0.000000  0.003718 -0.133383
H   0.000000 -0.025881  2.128548
2
Frame 256   E = -7.91468862 Ha
LI -0.000000  0.003768 -0.132865
H   0.000000 -0.026231  2.124944
2
Frame 257   E = -7.91507578 Ha
LI -0.000000  0.003822 -0.132190
H   0.000000 -0.026610  2.120244
2
Frame 258   E = -7.91555221 Ha
LI -0.000000  0.003881 -0.131357
H   0.000000 -0.027018  2.114449
2
Frame 259   E = -7.91611725 Ha
LI -0.000000  0.003944 -0.130368
H   0.000000 -0.027454  2.107561
2
Frame 260   E = -7.91677006 Ha
LI -0.000000  0.004010 -0.129222
H   0.000000 -0.027916  2.099583
2
Frame 261   E = -7.91750959 Ha
LI -0.000000  0.004080 -0.127920
H   0.000000 -0.028404  2.090517
2
Frame 262   E = -7.91833454 Ha
LI -0.000000  0.004154 -0.126462
H   0.000000 -0.028916  2.080367
2
Frame 263   E = -7.91924333 Ha
LI -0.000000  0.004230 -0.124849
H   0.000000 -0.029451  2.069137
2
Frame 264   E = -7.92023404 Ha
LI -0.000000  0.004310 -0.123081
H   0.000000 -0.030006  2.056832
2
Frame 265   E = -7.92130435 Ha
LI -0.000000  0.004393 -0.121160
H   0.000000 -0.030580  2.043458
2
Frame 266   E = -7.92245147 Ha
LI -0.000000  0.004478 -0.119086
H   0.000000 -0.031172  2.029021
2
Frame 267   E = -7.92367209 Ha
LI -0.000000  0.004565 -0.116861
H   0.000000 -0.031778  2.013530
2
Frame 268   E = -7.92496222 Ha
LI -0.000000  0.004654 -0.114486
H   0.000000 -0.032397  1.996994
2
Frame 269   E = -7.92631715 Ha
LI -0.000000  0.004744 -0.111962
H   0.000000 -0.033027  1.979425
2
Frame 270   E = -7.92773130 Ha
LI -0.000000  0.004836 -0.109291
H   0.000000 -0.033664  1.960834
2
Frame 271   E = -7.92919811 Ha
LI -0.000000  0.004928 -0.106476
H   0.000000 -0.034306  1.941238
2
Frame 272   E = -7.93070982 Ha
LI -0.000000  0.005021 -0.103519
H   0.000000 -0.034951  1.920652
2
Frame 273   E = -7.93225738 Ha
LI -0.000000  0.005113 -0.100423
H   0.000000 -0.035596  1.899099
2
Frame 274   E = -7.93383022 Ha
LI -0.000000  0.005205 -0.097191
H   0.000000 -0.036237  1.876600
2
Frame 275   E = -7.93541606 Ha
LI -0.000000  0.005297 -0.093827
H   0.000000 -0.036872  1.853183
2
Frame 276   E = -7.93700068 Ha
LI -0.000000  0.005386 -0.090336
H   0.000000 -0.037497  1.828879
2
Frame 277   E = -7.93856770 Ha
LI -0.000000  0.005474 -0.086723
H   0.000000 -0.038111  1.803724
2
Frame 278   E = -7.94009835 Ha
LI -0.000000  0.005560 -0.082993
H   0.000000 -0.038708  1.777760
2
Frame 279   E = -7.94157130 Ha
LI -0.000000  0.005643 -0.079154
H   0.000000 -0.039287  1.751033
2
Frame 280   E = -7.94296241 Ha
LI -0.000000  0.005724 -0.075213
H   0.000000 -0.039845  1.723600
2
Frame 281   E = -7.94424464 Ha
LI -0.000000  0.005800 -0.071180
H   0.000000 -0.040378  1.695522
2
Frame 282   E = -7.94538802 Ha
LI -0.000000  0.005873 -0.067065
H   0.000000 -0.040884  1.666872
2
Frame 283   E = -7.94635973 Ha
LI -0.000000  0.005941 -0.062879
H   0.000000 -0.041362  1.637731
2
Frame 284   E = -7.94712441 Ha
LI -0.000000  0.006006 -0.058636
H   0.000000 -0.041808  1.608193
2
Frame 285   E = -7.94764467 Ha
LI -0.000000  0.006065 -0.054351
H   0.000000 -0.042221  1.578363
2
Frame 286   E = -7.94788203 Ha
LI -0.000000  0.006119 -0.050041
H   0.000000 -0.042600  1.548361
2
Frame 287   E = -7.94779823 Ha
LI -0.000000  0.006169 -0.045726
H   0.000000 -0.042946  1.518322
2
Frame 288   E = -7.94735706 Ha
LI -0.000000  0.006214 -0.041427
H   0.000000 -0.043257  1.488396
2
Frame 289   E = -7.94652683 Ha
LI -0.000000  0.006254 -0.037169
H   0.000000 -0.043536  1.458752
2
Frame 290   E = -7.94528342 Ha
LI -0.000000  0.006289 -0.032978
H   0.000000 -0.043784  1.429576
2
Frame 291   E = -7.94361401 Ha
LI -0.000000  0.006321 -0.028883
H   0.000000 -0.044006  1.401072
2
Frame 292   E = -7.94152121 Ha
LI -0.000000  0.006350 -0.024917
H   0.000000 -0.044205  1.373460
2
Frame 293   E = -7.93902748 Ha
LI -0.000000  0.006376 -0.021113
H   0.000000 -0.044387  1.346979
2
Frame 294   E = -7.93617925 Ha
LI -0.000000  0.006401 -0.017508
H   0.000000 -0.044558  1.321882
2
Frame 295   E = -7.93305017 Ha
LI -0.000000  0.006425 -0.014139
H   0.000000 -0.044727  1.298431
2
Frame 296   E = -7.92974257 Ha
LI -0.000000  0.006450 -0.011046
H   0.000000 -0.044903  1.276894
2
Frame 297   E = -7.92638633 Ha
LI -0.000000  0.006478 -0.008265
H   0.000000 -0.045095  1.257540
2
Frame 298   E = -7.92313418 Ha
LI -0.000000  0.006509 -0.005836
H   0.000000 -0.045313  1.240629
2
Frame 299   E = -7.92015302 Ha
LI -0.000000  0.006545 -0.003793
H   0.000000 -0.045567  1.226405
2
Frame 300   E = -7.91761150 Ha
LI -0.000000  0.006589 -0.002167
H   0.000000 -0.045866  1.215085
2
Frame 301   E = -7.91566483 Ha
LI -0.000000  0.006639 -0.000984
H   0.000000 -0.046220  1.206849
2
Frame 302   E = -7.91443883 Ha
LI -0.000000  0.006699 -0.000263
H   0.000000 -0.046634  1.201834
2
Frame 303   E = -7.91401571 Ha
LI -0.000000  0.006768 -0.000018
H   0.000000 -0.047115  1.200126
2
Frame 304   E = -7.91442426 Ha
LI -0.000000  0.006847 -0.000252
H   0.000000 -0.047665  1.201754
2
Frame 305   E = -7.91563632 Ha
LI -0.000000  0.006936 -0.000961
H   0.000000 -0.048285  1.206690
2
Frame 306   E = -7.91757022 Ha
LI -0.000000  0.007035 -0.002133
H   0.000000 -0.048971  1.214847
2
Frame 307   E = -7.92010059 Ha
LI -0.000000  0.007142 -0.003748
H   0.000000 -0.049721  1.226091
2
Frame 308   E = -7.92307253 Ha
LI -0.000000  0.007258 -0.005780
H   0.000000 -0.050528  1.240241
2
Frame 309   E = -7.92631753 Ha
LI -0.000000  0.007381 -0.008199
H   0.000000 -0.051385  1.257080
2
Frame 310   E = -7.92966870 Ha
LI -0.000000  0.007510 -0.010969
H   0.000000 -0.052281  1.276364
2
Frame 311   E = -7.93297322 Ha
LI -0.000000  0.007643 -0.014054
H   0.000000 -0.053208  1.297835
2
Frame 312   E = -7.93610107 Ha
LI -0.000000  0.007779 -0.017413
H   0.000000 -0.054156  1.321223
2
Frame 313   E = -7.93894969 Ha
LI -0.000000  0.007917 -0.021010
H   0.000000 -0.055115  1.346261
2
Frame 314   E = -7.94144522 Ha
LI -0.000000  0.008055 -0.024806
H   0.000000 -0.056076  1.372686
2
Frame 315   E = -7.94354102 Ha
LI -0.000000  0.008192 -0.028765
H   0.000000 -0.057032  1.400246
2
Frame 316   E = -7.94521444 Ha
LI -0.000000  0.008328 -0.032852
H   0.000000 -0.057975  1.428703
2
Frame 317   E = -7.94646267 Ha
LI -0.000000  0.008460 -0.037037
H   0.000000 -0.058897  1.457835
2
Frame 318   E = -7.94729839 Ha
LI -0.000000  0.008589 -0.041290
H   0.000000 -0.059796  1.487439
2
Frame 319   E = -7.94774559 Ha
LI -0.000000  0.008714 -0.045583
H   0.000000 -0.060664  1.517328
2
Frame 320   E = -7.94783582 Ha
LI -0.000000  0.008834 -0.049894
H   0.000000 -0.061501  1.547336
2
Frame 321   E = -7.94760521 Ha
LI -0.000000  0.008950 -0.054199
H   0.000000 -0.062303  1.577310
2
Frame 322   E = -7.94709192 Ha
LI -0.000000  0.009060 -0.058481
H   0.000000 -0.063068  1.607117
2
Frame 323   E = -7.94633436 Ha
LI -0.000000  0.009164 -0.062721
H   0.000000 -0.063797  1.636637
2
Frame 324   E = -7.94536983 Ha
LI -0.000000  0.009263 -0.066905
H   0.000000 -0.064487  1.665764
2
Frame 325   E = -7.94423364 Ha
LI -0.000000  0.009357 -0.071019
H   0.000000 -0.065141  1.694404
2
Frame 326   E = -7.94295856 Ha
LI -0.000000  0.009446 -0.075052
H   0.000000 -0.065758  1.722477
2
Frame 327   E = -7.94157449 Ha
LI -0.000000  0.009530 -0.078993
H   0.000000 -0.066340  1.749909
2
Frame 328   E = -7.94010843 Ha
LI -0.000000  0.009608 -0.082832
H   0.000000 -0.066888  1.776640
2
Frame 329   E = -7.93858445 Ha
LI -0.000000  0.009682 -0.086563
H   0.000000 -0.067404  1.802613
2
Frame 330   E = -7.93702387 Ha
LI -0.000000  0.009752 -0.090179
H   0.000000 -0.067889  1.827781
2
Frame 331   E = -7.93544538 Ha
LI -0.000000  0.009818 -0.093672
H   0.000000 -0.068346  1.852103
2
Frame 332   E = -7.93386533 Ha
LI -0.000000  0.009879 -0.097039
H   0.000000 -0.068776  1.875543
2
Frame 333   E = -7.93229790 Ha
LI -0.000000  0.009938 -0.100275
H   0.000000 -0.069182  1.898070
2
Frame 334   E = -7.93075531 Ha
LI -0.000000  0.009993 -0.103376
H   0.000000 -0.069565  1.919656
2
Frame 335   E = -7.92924811 Ha
LI -0.000000  0.010045 -0.106339
H   0.000000 -0.069929  1.940279
2
Frame 336   E = -7.92778530 Ha
LI -0.000000  0.010095 -0.109160
H   0.000000 -0.070274  1.959918
2
Frame 337   E = -7.92637459 Ha
LI -0.000000  0.010142 -0.111837
H   0.000000 -0.070604  1.978557
2
Frame 338   E = -7.92502252 Ha
LI -0.000000  0.010187 -0.114368
H   0.000000 -0.070919  1.996180
2
Frame 339   E = -7.92373462 Ha
LI -0.000000  0.010231 -0.116752
H   0.000000 -0.071222  2.012774
2
Frame 340   E = -7.92251557 Ha
LI -0.000000  0.010273 -0.118986
H   0.000000 -0.071515  2.028328
2
Frame 341   E = -7.92136931 Ha
LI -0.000000  0.010314 -0.121070
H   0.000000 -0.071799  2.042833
2
Frame 342   E = -7.92029914 Ha
LI -0.000000  0.010353 -0.123002
H   0.000000 -0.072075  2.056282
2
Frame 343   E = -7.91930780 Ha
LI -0.000000  0.010392 -0.124781
H   0.000000 -0.072347  2.068666
2
Frame 344   E = -7.91839758 Ha
LI -0.000000  0.010431 -0.126406
H   0.000000 -0.072614  2.079981
2
Frame 345   E = -7.91757036 Ha
LI -0.000000  0.010469 -0.127877
H   0.000000 -0.072878  2.090222
2
Frame 346   E = -7.91682772 Ha
LI -0.000000  0.010506 -0.129193
H   0.000000 -0.073140  2.099383
2
Frame 347   E = -7.91617090 Ha
LI -0.000000  0.010544 -0.130354
H   0.000000 -0.073401  2.107463
2
Frame 348   E = -7.91560094 Ha
LI -0.000000  0.010581 -0.131359
H   0.000000 -0.073662  2.114458
2
Frame 349   E = -7.91511865 Ha
LI -0.000000  0.010619 -0.132207
H   0.000000 -0.073923  2.120366
2
Frame 350   E = -7.91472468 Ha
LI -0.000000  0.010657 -0.132900
H   0.000000 -0.074186  2.125185
2
Frame 351   E = -7.91441952 Ha
LI -0.000000  0.010695 -0.133435
H   0.000000 -0.074450  2.128914
2
Frame 352   E = -7.91420353 Ha
LI -0.000000  0.010733 -0.133814
H   0.000000 -0.074717  2.131551
2
Frame 353   E = -7.91407695 Ha
LI -0.000000  0.010771 -0.134036
H   0.000000 -0.074985  2.133096
2
Frame 354   E = -7.91403992 Ha
LI -0.000000  0.010810 -0.134101
H   0.000000 -0.075256  2.133548
2
Frame 355   E = -7.91409245 Ha
LI -0.000000  0.010849 -0.134009
H   0.000000 -0.075529  2.132908
2
Frame 356   E = -7.91423449 Ha
LI -0.000000  0.010889 -0.133760
H   0.000000 -0.075804  2.131175
2
Frame 357   E = -7.91446586 Ha
LI -0.000000  0.010929 -0.133354
H   0.000000 -0.076080  2.128350
2
Frame 358   E = -7.91478627 Ha
LI -0.000000  0.010968 -0.132792
H   0.000000 -0.076357  2.124434
2
Frame 359   E = -7.91519533 Ha
LI -0.000000  0.011008 -0.132073
H   0.000000 -0.076634  2.119428
2
Frame 360   E = -7.91569250 Ha
LI -0.000000  0.011048 -0.131197
H   0.000000 -0.076911  2.113334
2
Frame 361   E = -7.91627709 Ha
LI -0.000000  0.011088 -0.130166
H   0.000000 -0.077186  2.106154
2
Frame 362   E = -7.91694821 Ha
LI -0.000000  0.011127 -0.128979
H   0.000000 -0.077460  2.097889
2
Frame 363   E = -7.91770479 Ha
LI -0.000000  0.011166 -0.127636
H   0.000000 -0.077729  2.088544
2
Frame 364   E = -7.91854550 Ha
LI -0.000000  0.011203 -0.126139
H   0.000000 -0.077993  2.078121
2
Frame 365   E = -7.91946872 Ha
LI -0.000000  0.011241 -0.124488
H   0.000000 -0.078252  2.066626
2
Frame 366   E = -7.92047247 Ha
LI -0.000000  0.011276 -0.122683
H   0.000000 -0.078502  2.054062
2
Frame 367   E = -7.92155438 Ha
LI -0.000000  0.011311 -0.120726
H   0.000000 -0.078742  2.040436
2
Frame 368   E = -7.92271160 Ha
LI -0.000000  0.011344 -0.118617
H   0.000000 -0.078971  2.025756
2
Frame 369   E = -7.92394073 Ha
LI -0.000000  0.011375 -0.116358
H   0.000000 -0.079187  2.010029
2
Frame 370   E = -7.92523772 Ha
LI -0.000000  0.011404 -0.113950
H   0.000000 -0.079387  1.993265
2
Frame 371   E = -7.92659774 Ha
LI -0.000000  0.011430 -0.111394
H   0.000000 -0.079570  1.975475
2
Frame 372   E = -7.92801510 Ha
LI -0.000000  0.011453 -0.108694
H   0.000000 -0.079734  1.956673
2
Frame 373   E = -7.92948310 Ha
LI -0.000000  0.011474 -0.105849
H   0.000000 -0.079875  1.936874
2
Frame 374   E = -7.93099384 Ha
LI -0.000000  0.011491 -0.102865
H   0.000000 -0.079992  1.916096
2
Frame 375   E = -7.93253809 Ha
LI -0.000000  0.011504 -0.099742
H   0.000000 -0.080083  1.894359
2
Frame 376   E = -7.93410509 Ha
LI -0.000000  0.011513 -0.096485
H   0.000000 -0.080146  1.871687
2
Frame 377   E = -7.93568234 Ha
LI -0.000000  0.011517 -0.093098
H   0.000000 -0.080177  1.848107
2
Frame 378   E = -7.93725539 Ha
LI -0.000000  0.011517 -0.089586
H   0.000000 -0.080175  1.823653
2
Frame 379   E = -7.93880760 Ha
LI -0.000000  0.011512 -0.085952
H   0.000000 -0.080138  1.798360
2
Frame 380   E = -7.94031993 Ha
LI -0.000000  0.011501 -0.082205
H   0.000000 -0.080064  1.772270
2
Frame 381   E = -7.94177075 Ha
LI -0.000000  0.011485 -0.078350
H   0.000000 -0.079951  1.745433
2
Frame 382   E = -7.94313564 Ha
LI -0.000000  0.011463 -0.074395
H   0.000000 -0.079797  1.717904
2
Frame 383   E = -7.94438729 Ha
LI -0.000000  0.011435 -0.070350
H   0.000000 -0.079602  1.689746
2
Frame 384   E = -7.94549549 Ha
LI -0.000000  0.011401 -0.066226
H   0.000000 -0.079366  1.661034
2
Frame 385   E = -7.94642724 Ha
LI -0.000000  0.011361 -0.062034
H   0.000000 -0.079087  1.631850
2
Frame 386   E = -7.94714707 Ha
LI -0.000000  0.011315 -0.057788
H   0.000000 -0.078766  1.602290
2
Frame 387   E = -7.94761766 Ha
LI -0.000000  0.011263 -0.053503
H   0.000000 -0.078406  1.572460
2
Frame 388   E = -7.94780079 Ha
LI -0.000000  0.011205 -0.049196
H   0.000000 -0.078007  1.542482
2
Frame 389   E = -7.94765870 Ha
LI -0.000000  0.011143 -0.044888
H   0.000000 -0.077573  1.512492
2
Frame 390   E = -7.94715603 Ha
LI -0.000000  0.011077 -0.040601
H   0.000000 -0.077110  1.482645
2
Frame 391   E = -7.94626234 Ha
LI -0.000000  0.011006 -0.036358
H   0.000000 -0.076622  1.453108
2
Frame 392   E = -7.94495526 Ha
LI -0.000000  0.010934 -0.032187
H   0.000000 -0.076116  1.424071
2
Frame 393   E = -7.94322423 Ha
LI -0.000000  0.010860 -0.028117
H   0.000000 -0.075602  1.395739
2
Frame 394   E = -7.94107467 Ha
LI -0.000000  0.010786 -0.024181
H   0.000000 -0.075089  1.368334
2
Frame 395   E = -7.93853236 Ha
LI -0.000000  0.010715 -0.020412
H   0.000000 -0.074590  1.342096
2
Frame 396   E = -7.93564740 Ha
LI -0.000000  0.010647 -0.016847
H   0.000000 -0.074118  1.317278
2
Frame 397   E = -7.93249723 Ha
LI -0.000000  0.010585 -0.013523
H   0.000000 -0.073688  1.294141
2
Frame 398   E = -7.92918774 Ha
LI -0.000000  0.010531 -0.010480
H   0.000000 -0.073315  1.272954
2
Frame 399   E = -7.92585170 Ha
LI -0.000000  0.010488 -0.007754
H   0.000000 -0.073016  1.253982
2
Frame 400   E = -7.92264343 Ha
LI -0.000000  0.010458 -0.005384
H   0.000000 -0.072807  1.237483
2
Frame 401   E = -7.91972975 Ha
LI -0.000000  0.010444 -0.003404
H   0.000000 -0.072704  1.223695
2
Frame 402   E = -7.91727709 Ha
LI -0.000000  0.010446 -0.001843
H   0.000000 -0.072723  1.212828
2
Frame 403   E = -7.91543624 Ha
LI -0.000000  0.010468 -0.000727
H   0.000000 -0.072874  1.205058
2
Frame 404   E = -7.91432661 Ha
LI -0.000000  0.010511 -0.000074
H   0.000000 -0.073170  1.200513
2
Frame 405   E = -7.91402269 Ha
LI -0.000000  0.010575  0.000105
H   0.000000 -0.073615  1.199270
2
Frame 406   E = -7.91454508 Ha
LI -0.000000  0.010661 -0.000194
H   0.000000 -0.074213  1.201349
2
Frame 407   E = -7.91585797 Ha
LI -0.000000  0.010768 -0.000965
H   0.000000 -0.074964  1.206715
2
Frame 408   E = -7.91787353 Ha
LI -0.000000  0.010897 -0.002194
H   0.000000 -0.075863  1.215275
2
Frame 409   E = -7.92046237 Ha
LI -0.000000  0.011047 -0.003862
H   0.000000 -0.076901  1.226887
2
Frame 410   E = -7.92346790 Ha
LI -0.000000  0.011214 -0.005942
H   0.000000 -0.078067  1.241367
2
Frame 411   E = -7.92672225 Ha
LI -0.000000  0.011398 -0.008403
H   0.000000 -0.079348  1.258495
2
Frame 412   E = -7.93006098 Ha
LI -0.000000  0.011596 -0.011208
H   0.000000 -0.080728  1.278027
2
Frame 413   E = -7.93333500 Ha
LI -0.000000  0.011807 -0.014322
H   0.000000 -0.082192  1.299702
2
Frame 414   E = -7.93641862 Ha
LI -0.000000  0.012026 -0.017705
H   0.000000 -0.083723  1.323253
2
Frame 415   E = -7.93921378 Ha
LI -0.000000  0.012254 -0.021319
H   0.000000 -0.085304  1.348414
2
Frame 416   E = -7.94165077 Ha
LI -0.000000  0.012486 -0.025127
H   0.000000 -0.086921  1.374925
2
Frame 417   E = -7.94368652 Ha
LI -0.000000  0.012721 -0.029094
H   0.000000 -0.088558  1.402538
2
Frame 418   E = -7.94530128 Ha
LI -0.000000  0.012957 -0.033185
H   0.000000 -0.090203  1.431016
2
Frame 419   E = -7.94649440 Ha
LI -0.000000  0.013193 -0.037369
H   0.000000 -0.091845  1.460144
2
Frame 420   E = -7.94728006 Ha
LI -0.000000  0.013427 -0.041617
H   0.000000 -0.093472  1.489719
2
Frame 421   E = -7.94768314 Ha
LI -0.000000  0.013657 -0.045904
H   0.000000 -0.095075  1.519560
2
Frame 422   E = -7.94773564 Ha
LI -0.000000  0.013883 -0.050205
H   0.000000 -0.096649  1.549501
2
Frame 423   E = -7.94747374 Ha
LI -0.000000  0.014104 -0.054499
H   0.000000 -0.098186  1.579395
2
Frame 424   E = -7.94693541 Ha
LI -0.000000  0.014319 -0.058767
H   0.000000 -0.099682  1.609109
2
Frame 425   E = -7.94615868 Ha
LI -0.000000  0.014527 -0.062993
H   0.000000 -0.101133  1.638526
2
Frame 426   E = -7.94518035 Ha
LI -0.000000  0.014729 -0.067161
H   0.000000 -0.102536  1.667543
2
Frame 427   E = -7.94403517 Ha
LI -0.000000  0.014923 -0.071259
H   0.000000 -0.103889  1.696068
2
Frame 428   E = -7.94275532 Ha
LI -0.000000  0.015110 -0.075274
H   0.000000 -0.105191  1.724022
2
Frame 429   E = -7.94137016 Ha
LI -0.000000  0.015290 -0.079197
H   0.000000 -0.106441  1.751332
2
Frame 430   E = -7.93990612 Ha
LI -0.000000  0.015462 -0.083019
H   0.000000 -0.107639  1.777939
2
Frame 431   E = -7.93838677 Ha
LI -0.000000  0.015627 -0.086732
H   0.000000 -0.108785  1.803789
2
Frame 432   E = -7.93683295 Ha
LI -0.000000  0.015784 -0.090330
H   0.000000 -0.109880  1.828835
2
Frame 433   E = -7.93526295 Ha
LI -0.000000  0.015934 -0.093806
H   0.000000 -0.110925  1.853036
2
Frame 434   E = -7.93369271 Ha
LI -0.000000  0.016077 -0.097156
H   0.000000 -0.111921  1.876357
2
Frame 435   E = -7.93213608 Ha
LI -0.000000  0.016213 -0.100376
H   0.000000 -0.112869  1.898769
2
Frame 436   E = -7.93060501 Ha
LI -0.000000  0.016343 -0.103460
H   0.000000 -0.113771  1.920243
2
Frame 437   E = -7.92910977 Ha
LI -0.000000  0.016466 -0.106407
H   0.000000 -0.114627  1.940758
2
Frame 438   E = -7.92765914 Ha
LI -0.000000  0.016583 -0.109214
H   0.000000 -0.115441  1.960293
2
Frame 439   E = -7.92626064 Ha
LI -0.000000  0.016693 -0.111877
H   0.000000 -0.116212  1.978833
2
Frame 440   E = -7.92492063 Ha
LI -0.000000  0.016799 -0.114395
H   0.000000 -0.116943  1.996361
2
Frame 441   E = -7.92364451 Ha
LI -0.000000  0.016898 -0.116765
H   0.000000 -0.117636  2.012866
2
Frame 442   E = -7.92243682 Ha
LI -0.000000  0.016992 -0.118988
H   0.000000 -0.118292  2.028337
2
Frame 443   E = -7.92130141 Ha
LI -0.000000  0.017081 -0.121060
H   0.000000 -0.118911  2.042764
2
Frame 444   E = -7.92024147 Ha
LI -0.000000  0.017165 -0.122982
H   0.000000 -0.119497  2.056140
2
Frame 445   E = -7.91925969 Ha
LI -0.000000  0.017245 -0.124751
H   0.000000 -0.120049  2.068458
2
Frame 446   E = -7.91835827 Ha
LI -0.000000  0.017319 -0.126368
H   0.000000 -0.120570  2.079713
2
Frame 447   E = -7.91753906 Ha
LI -0.000000  0.017390 -0.127831
H   0.000000 -0.121059  2.089899
2
Frame 448   E = -7.91680356 Ha
LI -0.000000  0.017456 -0.129140
H   0.000000 -0.121519  2.099013
2
Frame 449   E = -7.91615301 Ha
LI -0.000000  0.017518 -0.130295
H   0.000000 -0.121950  2.107051
2
Frame 450   E = -7.91558839 Ha
LI -0.000000  0.017576 -0.131294
H   0.000000 -0.122353  2.114010
2
Frame 451   E = -7.91511051 Ha
LI -0.000000  0.017630 -0.132139
H   0.000000 -0.122729  2.119888
2
Frame 452   E = -7.91471999 Ha
LI -0.000000  0.017680 -0.132828
H   0.000000 -0.123078  2.124684
2
Frame 453   E = -7.91441730 Ha
LI -0.000000  0.017726 -0.133361
H   0.000000 -0.123400  2.128396
2
Frame 454   E = -7.91420279 Ha
LI -0.000000  0.017769 -0.133738
H   0.000000 -0.123697  2.131023
2
Frame 455   E = -7.91407670 Ha
LI -0.000000  0.017807 -0.133960
H   0.000000 -0.123967  2.132564
2
Frame 456   E = -7.91403916 Ha
LI -0.000000  0.017843 -0.134025
H   0.000000 -0.124211  2.133019
2
Frame 457   E = -7.91409020 Ha
LI -0.000000  0.017874 -0.133934
H   0.000000 -0.124430  2.132387
2
Frame 458   E = -7.91422975 Ha
LI -0.000000  0.017902 -0.133688
H   0.000000 -0.124622  2.130670
2
Frame 459   E = -7.91445765 Ha
LI -0.000000  0.017925 -0.133285
H   0.000000 -0.124788  2.127867
2
Frame 460   E = -7.91477363 Ha
LI -0.000000  0.017945 -0.132726
H   0.000000 -0.124926  2.123979
2
Frame 461   E = -7.91517731 Ha
LI -0.000000  0.017961 -0.132012
H   0.000000 -0.125037  2.119007
2
Frame 462   E = -7.91566816 Ha
LI -0.000000  0.017973 -0.131143
H   0.000000 -0.125120  2.112954
2
Frame 463   E = -7.91624553 Ha
LI -0.000000  0.017981 -0.130118
H   0.000000 -0.125174  2.105820
2
Frame 464   E = -7.91690858 Ha
LI -0.000000  0.017984 -0.128938
H   0.000000 -0.125197  2.097608
2
Frame 465   E = -7.91765625 Ha
LI -0.000000  0.017983 -0.127604
H   0.000000 -0.125190  2.088322
2
Frame 466   E = -7.91848726 Ha
LI -0.000000  0.017977 -0.126117
H   0.000000 -0.125150  2.077965
2
Frame 467   E = -7.91940005 Ha
LI -0.000000  0.017967 -0.124476
H   0.000000 -0.125077  2.066540
2
Frame 468   E = -7.92039272 Ha
LI -0.000000  0.017951 -0.122682
H   0.000000 -0.124968  2.054053
2
Frame 469   E = -7.92146296 Ha
LI -0.000000  0.017930 -0.120736
H   0.000000 -0.124823  2.040510
2
Frame 470   E = -7.92260802 Ha
LI -0.000000  0.017904 -0.118640
H   0.000000 -0.124641  2.025918
2
Frame 471   E = -7.92382460 Ha
LI -0.000000  0.017872 -0.116395
H   0.000000 -0.124418  2.010284
2
Frame 472   E = -7.92510877 Ha
LI -0.000000  0.017834 -0.114001
H   0.000000 -0.124154  1.993619
2
Frame 473   E = -7.92645586 Ha
LI -0.000000  0.017790 -0.111460
H   0.000000 -0.123847  1.975933
2
Frame 474   E = -7.92786033 Ha
LI -0.000000  0.017740 -0.108775
H   0.000000 -0.123495  1.957239
2
Frame 475   E = -7.92931567 Ha
LI -0.000000  0.017682 -0.105947
H   0.000000 -0.123097  1.937552
2
Frame 476   E = -7.93081421 Ha
LI -0.000000  0.017618 -0.102979
H   0.000000 -0.122650  1.916890
2
Frame 477   E = -7.93234697 Ha
LI -0.000000  0.017547 -0.099874
H   0.000000 -0.122153  1.895272
2
Frame 478   E = -7.93390348 Ha
LI -0.000000  0.017468 -0.096634
H   0.000000 -0.121604  1.872723
2
Frame 479   E = -7.93547157 Ha
LI -0.000000  0.017381 -0.093265
H   0.000000 -0.121001  1.849268
2
Frame 480   E = -7.93703715 Ha
LI -0.000000  0.017287 -0.089770
H   0.000000 -0.120344  1.824940
2
Frame 481   E = -7.93858400 Ha
LI -0.000000  0.017185 -0.086155
H   0.000000 -0.119631  1.799774
2
Frame 482   E = -7.94009355 Ha
LI -0.000000  0.017074 -0.082426
H   0.000000 -0.118862  1.773811
2
Frame 483   E = -7.94154467 Ha
LI -0.000000  0.016955 -0.078589
H   0.000000 -0.118035  1.747099
2
Frame 484   E = -7.94291350 Ha
LI -0.000000  0.016828 -0.074652
H   0.000000 -0.117151  1.719693
2
Frame 485   E = -7.94417329 Ha
LI -0.000000  0.016693 -0.070624
H   0.000000 -0.116210  1.691654
2
Frame 486   E = -7.94529444 Ha
LI -0.000000  0.016550 -0.066516
H   0.000000 -0.115213  1.663055
2
Frame 487   E = -7.94624453 Ha
LI -0.000000  0.016399 -0.062339
H   0.000000 -0.114163  1.633977
2
Frame 488   E = -7.94698866 Ha
LI -0.000000  0.016241 -0.058107
H   0.000000 -0.113061  1.604513
2
Frame 489   E = -7.94748998 Ha
LI -0.000000  0.016076 -0.053834
H   0.000000 -0.111912  1.574767
2
Frame 490   E = -7.94771059 Ha
LI -0.000000  0.015905 -0.049538
H   0.000000 -0.110721  1.544859
2
Frame 491   E = -7.94761284 Ha
LI -0.000000  0.015728 -0.045238
H   0.000000 -0.109493  1.514923
2
Frame 492   E = -7.94716116 Ha
LI -0.000000  0.015548 -0.040955
H   0.000000 -0.108238  1.485108
2
Frame 493   E = -7.94632449 Ha
LI -0.000000  0.015365 -0.036713
H   0.000000 -0.106963  1.455580
2
Frame 494   E = -7.94507928 Ha
LI -0.000000  0.015181 -0.032539
H   0.000000 -0.105681  1.426524
2
Frame 495   E = -7.94341317 Ha
LI -0.000000  0.014997 -0.028463
H   0.000000 -0.104405  1.398143
2
Frame 496   E = -7.94132903 Ha
LI -0.000000  0.014817 -0.024514
H   0.000000 -0.103150  1.370654
2
Frame 497   E = -7.93884932 Ha
LI -0.000000  0.014642 -0.020728
H   0.000000 -0.101932  1.344295
2
Frame 498   E = -7.93602013 Ha
LI -0.000000  0.014475 -0.017139
H   0.000000 -0.100771  1.319314
2
Frame 499   E = -7.93291433 Ha
LI -0.000000  0.014320 -0.013786
H   0.000000 -0.099687  1.295972
2
Frame 500   E = -7.92963304 Ha
LI -0.000000  0.014178 -0.010706
H   0.000000 -0.098701  1.274534
2
Frame 501   E = -7.92630447 Ha
LI -0.000000  0.014054 -0.007939
H   0.000000 -0.097836  1.255264
2
Frame 502   E = -7.92307927 Ha
LI -0.000000  0.013950 -0.005519
H   0.000000 -0.097113  1.238422
2
Frame 503   E = -7.92012208 Ha
LI -0.000000  0.013870 -0.003483
H   0.000000 -0.096554  1.224247
2
Frame 504   E = -7.91759928 Ha
LI -0.000000  0.013816 -0.001861
H   0.000000 -0.096177  1.212953
2
Frame 505   E = -7.91566412 Ha
LI -0.000000  0.013790 -0.000678
H   0.000000 -0.096000  1.204721
2
Frame 506   E = -7.91444100 Ha
LI -0.000000  0.013795  0.000045
H   0.000000 -0.096036  1.199686
2
Frame 507   E = -7.91401153 Ha
LI -0.000000  0.013832  0.000297
H   0.000000 -0.096293  1.197932
2
Frame 508   E = -7.91440486 Ha
LI -0.000000  0.013901  0.000073
H   0.000000 -0.096775  1.199489
2
Frame 509   E = -7.91559404 Ha
LI -0.000000  0.014003 -0.000622
H   0.000000 -0.097480  1.204330
2
Frame 510   E = -7.91749937 Ha
LI -0.000000  0.014135 -0.001777
H   0.000000 -0.098403  1.212371
2
Frame 511   E = -7.91999790 Ha
LI -0.000000  0.014298 -0.003373
H   0.000000 -0.099533  1.223480
2
Frame 512   E = -7.92293728 Ha
LI -0.000000  0.014487 -0.005384
H   0.000000 -0.100854  1.237477
2
Frame 513   E = -7.92615142 Ha
LI -0.000000  0.014702 -0.007779
H   0.000000 -0.102349  1.254151
2
Frame 514   E = -7.92947544 Ha
LI -0.000000  0.014939 -0.010524
H   0.000000 -0.103998  1.273260
2
Frame 515   E = -7.93275800 Ha
LI -0.000000  0.015195 -0.013582
H   0.000000 -0.105778  1.294549
2
Frame 516   E = -7.93587001 Ha
LI -0.000000  0.015466 -0.016915
H   0.000000 -0.107668  1.317752
2
Frame 517   E = -7.93870932 Ha
LI -0.000000  0.015750 -0.020484
H   0.000000 -0.109646  1.342603
2
Frame 518   E = -7.94120201 Ha
LI -0.000000  0.016044 -0.024254
H   0.000000 -0.111690  1.368844
2
Frame 519   E = -7.94330105 Ha
LI -0.000000  0.016344 -0.028187
H   0.000000 -0.113781  1.396223
2
Frame 520   E = -7.94498317 Ha
LI -0.000000  0.016649 -0.032249
H   0.000000 -0.115901  1.424505
2
Frame 521   E = -7.94624480 Ha
LI -0.000000  0.016955 -0.036410
H   0.000000 -0.118032  1.453470
2
Frame 522   E = -7.94709778 Ha
LI -0.000000  0.017261 -0.040640
H   0.000000 -0.120161  1.482916
2
Frame 523   E = -7.94756528 Ha
LI -0.000000  0.017564 -0.044912
H   0.000000 -0.122273  1.512658
2
Frame 524   E = -7.94767808 Ha
LI -0.000000  0.017864 -0.049203
H   0.000000 -0.124360  1.542529
2
Frame 525   E = -7.94747158 Ha
LI -0.000000  0.018158 -0.053491
H   0.000000 -0.126410  1.572379
2
Frame 526   E = -7.94698333 Ha
LI -0.000000  0.018447 -0.057757
H   0.000000 -0.128417  1.602074
2
Frame 527   E = -7.94625119 Ha
LI -0.000000  0.018728 -0.061983
H   0.000000 -0.130373  1.631495
2
Frame 528   E = -7.94531202 Ha
LI -0.000000  0.019001 -0.066154
H   0.000000 -0.132274  1.660535
2
Frame 529   E = -7.94420074 Ha
LI -0.000000  0.019265 -0.070258
H   0.000000 -0.134116  1.689103
2
Frame 530   E = -7.94294980 Ha
LI -0.000000  0.019521 -0.074282
H   0.000000 -0.135896  1.717115
2
Frame 531   E = -7.94158889 Ha
LI -0.000000  0.019767 -0.078216
H   0.000000 -0.137611  1.744502
2
Frame 532   E = -7.94014477 Ha
LI -0.000000  0.020004 -0.082051
H   0.000000 -0.139260  1.771200
2
Frame 533   E = -7.93864139 Ha
LI -0.000000  0.020232 -0.085779
H   0.000000 -0.140843  1.797154
2
Frame 534   E = -7.93709991 Ha
LI -0.000000  0.020449 -0.089394
H   0.000000 -0.142358  1.822316
2
Frame 535   E = -7.93553897 Ha
LI -0.000000  0.020657 -0.092888
H   0.000000 -0.143805  1.846646
2
Frame 536   E = -7.93397481 Ha
LI -0.000000  0.020855 -0.096259
H   0.000000 -0.145186  1.870107
2
Frame 537   E = -7.93242155 Ha
LI -0.000000  0.021044 -0.099499
H   0.000000 -0.146501  1.892668
2
Frame 538   E = -7.93089140 Ha
LI -0.000000  0.021224 -0.102607
H   0.000000 -0.147750  1.914302
2
Frame 539   E = -7.92939485 Ha
LI -0.000000  0.021394 -0.105578
H   0.000000 -0.148935  1.934986
2
Frame 540   E = -7.92794089 Ha
LI -0.000000  0.021555 -0.108410
H   0.000000 -0.150057  1.954699
2
Frame 541   E = -7.92653721 Ha
LI -0.000000  0.021707 -0.111100
H   0.000000 -0.151117  1.973424
2
Frame 542   E = -7.92519032 Ha
LI -0.000000  0.021851 -0.113645
H   0.000000 -0.152116  1.991145
2
Frame 543   E = -7.92390577 Ha
LI -0.000000  0.021986 -0.116045
H   0.000000 -0.153056  2.007851
2
Frame 544   E = -7.92268821 Ha
LI -0.000000  0.022113 -0.118297
H   0.000000 -0.153938  2.023531
2
Frame 545   E = -7.92154159 Ha
LI -0.000000  0.022231 -0.120401
H   0.000000 -0.154764  2.038173
2
Frame 546   E = -7.92046918 Ha
LI -0.000000  0.022342 -0.122354
H   0.000000 -0.155534  2.051771
2
Frame 547   E = -7.91947375 Ha
LI -0.000000  0.022445 -0.124156
H   0.000000 -0.156249  2.064318
2
Frame 548   E = -7.91855758 Ha
LI -0.000000  0.022540 -0.125807
H   0.000000 -0.156912  2.075808
2
Frame 549   E = -7.91772256 Ha
LI -0.000000  0.022628 -0.127305
H   0.000000 -0.157523  2.086235
2
Frame 550   E = -7.91697025 Ha
LI -0.000000  0.022708 -0.128649
H   0.000000 -0.158083  2.095596
2
Frame 551   E = -7.91630191 Ha
LI -0.000000  0.022781 -0.129840
H   0.000000 -0.158592  2.103887
2
Frame 552   E = -7.91571859 Ha
LI -0.000000  0.022847 -0.130877
H   0.000000 -0.159053  2.111105
2
Frame 553   E = -7.91522111 Ha
LI -0.000000  0.022907 -0.131760
H   0.000000 -0.159465  2.117249
2
Frame 554   E = -7.91481012 Ha
LI -0.000000  0.022959 -0.132487
H   0.000000 -0.159828  2.122315
2
Frame 555   E = -7.91448613 Ha
LI -0.000000  0.023004 -0.133060
H   0.000000 -0.160144  2.126303
2
Frame 556   E = -7.91424952 Ha
LI -0.000000  0.023043 -0.133478
H   0.000000 -0.160413  2.129211
2
Frame 557   E = -7.91410054 Ha
LI -0.000000  0.023075 -0.133741
H   0.000000 -0.160635  2.131039
2
Frame 558   E = -7.91403935 Ha
LI -0.000000  0.023100 -0.133848
H   0.000000 -0.160810  2.131786
2
Frame 559   E = -7.91406601 Ha
LI -0.000000  0.023118 -0.133800
H   0.000000 -0.160938  2.131451
2
Frame 560   E = -7.91418048 Ha
LI -0.000000  0.023130 -0.133597
H   0.000000 -0.161019  2.130036
2
Frame 561   E = -7.91438265 Ha
LI -0.000000  0.023135 -0.133238
H   0.000000 -0.161053  2.127540
2
Frame 562   E = -7.91467227 Ha
LI -0.000000  0.023133 -0.132724
H   0.000000 -0.161040  2.123965
2
Frame 563   E = -7.91504901 Ha
LI -0.000000  0.023124 -0.132056
H   0.000000 -0.160978  2.119310
2
Frame 564   E = -7.91551241 Ha
LI -0.000000  0.023108 -0.131232
H   0.000000 -0.160868  2.113578
2
Frame 565   E = -7.91606185 Ha
LI -0.000000  0.023085 -0.130255
H   0.000000 -0.160708  2.106771
2
Frame 566   E = -7.91669659 Ha
LI -0.000000  0.023055 -0.129122
H   0.000000 -0.160499  2.098890
2
Frame 567   E = -7.91741565 Ha
LI -0.000000  0.023018 -0.127837
H   0.000000 -0.160238  2.089938
2
Frame 568   E = -7.91821786 Ha
LI -0.000000  0.022973 -0.126397
H   0.000000 -0.159925  2.079919
2
Frame 569   E = -7.91910177 Ha
LI -0.000000  0.022920 -0.124805
H   0.000000 -0.159559  2.068836
2
Frame 570   E = -7.92006561 Ha
LI -0.000000  0.022860 -0.123061
H   0.000000 -0.159138  2.056694
2
Frame 571   E = -7.92110726 Ha
LI -0.000000  0.022791 -0.121166
H   0.000000 -0.158662  2.043499
2
Frame 572   E = -7.92222416 Ha
LI -0.000000  0.022715 -0.119120
H   0.000000 -0.158129  2.029258
2
Frame 573   E = -7.92341322 Ha
LI -0.000000  0.022630 -0.116925
H   0.000000 -0.157538  2.013977
2
Frame 574   E = -7.92467079 Ha
LI -0.000000  0.022536 -0.114582
H   0.000000 -0.156887  1.997666
2
Frame 575   E = -7.92599249 Ha
LI -0.000000  0.022434 -0.112092
H   0.000000 -0.156174  1.980335
2
Frame 576   E = -7.92737315 Ha
LI -0.000000  0.022323 -0.109458
H   0.000000 -0.155399  1.961996
2
Frame 577   E = -7.92880666 Ha
LI -0.000000  0.022202 -0.106681
H   0.000000 -0.154560  1.942663
2
Frame 578   E = -7.93028582 Ha
LI -0.000000  0.022072 -0.103764
H   0.000000 -0.153655  1.922354
2
Frame 579   E = -7.93180220 Ha
LI -0.000000  0.021932 -0.100709
H   0.000000 -0.152683  1.901087
2
Frame 580   E = -7.93334593 Ha
LI -0.000000  0.021783 -0.097519
H   0.000000 -0.151643  1.878883
2
Frame 581   E = -7.93490554 Ha
LI -0.000000  0.021624 -0.094199
H   0.000000 -0.150534  1.855769
2
Frame 582   E = -7.93646772 Ha
LI -0.000000  0.021454 -0.090752
H   0.000000 -0.149355  1.831774
2
Frame 583   E = -7.93801711 Ha
LI -0.000000  0.021275 -0.087184
H   0.000000 -0.148106  1.806932
2
Frame 584   E = -7.93953612 Ha
LI -0.000000  0.021085 -0.083499
H   0.000000 -0.146785  1.781283
2
Frame 585   E = -7.94100465 Ha
LI -0.000000  0.020885 -0.079705
H   0.000000 -0.145395  1.754870
2
Frame 586   E = -7.94239994 Ha
LI -0.000000  0.020676 -0.075809
H   0.000000 -0.143935  1.727747
2
Frame 587   E = -7.94369644 Ha
LI -0.000000  0.020456 -0.071819
H   0.000000 -0.142406  1.699972
2
Frame 588   E = -7.94486568 Ha
LI -0.000000  0.020227 -0.067746
H   0.000000 -0.140812  1.671613
2
Frame 589   E = -7.94587641 Ha
LI -0.000000  0.019989 -0.063599
H   0.000000 -0.139154  1.642748
2
Frame 590   E = -7.94669473 Ha
LI -0.000000  0.019742 -0.059393
H   0.000000 -0.137436  1.613464
2
Frame 591   E = -7.94728458 Ha
LI -0.000000  0.019488 -0.055141
H   0.000000 -0.135665  1.583862
2
Frame 592   E = -7.94760848 Ha
LI -0.000000  0.019227 -0.050859
H   0.000000 -0.133846  1.554056
2
Frame 593   E = -7.94762869 Ha
LI -0.000000  0.018959 -0.046566
H   0.000000 -0.131987  1.524172
2
Frame 594   E = -7.94730881 Ha
LI -0.000000  0.018688 -0.042283
H   0.000000 -0.130098  1.494355
2
Frame 595   E = -7.94661595 Ha
LI -0.000000  0.018414 -0.038032
H   0.000000 -0.128190  1.464763
2
Frame 596   E = -7.94552355 Ha
LI -0.000000  0.018139 -0.033839
H   0.000000 -0.126277  1.435574
2
Frame 597   E = -7.94401477 Ha
LI -0.000000  0.017866 -0.029732
H   0.000000 -0.124374  1.406984
2
Frame 598   E = -7.94208643 Ha
LI -0.000000  0.017596 -0.025742
H   0.000000 -0.122498  1.379203
2
Frame 599   E = -7.93975323 Ha
LI -0.000000  0.017334 -0.021901
H   0.000000 -0.120670  1.352461
2
Frame 600   E = -7.93705198 Ha
LI -0.000000  0.017081 -0.018243
H   0.000000 -0.118911  1.327002
2
Frame 601   E = -7.93404514 Ha
LI -0.000000  0.016842 -0.014807
H   0.000000 -0.117245  1.303082
2
Frame 602   E = -7.93082302 Ha
LI -0.000000  0.016619 -0.011630
H   0.000000 -0.115696  1.280963
2
Frame 603   E = -7.92750366 Ha
LI -0.000000  0.016417 -0.008750
H   0.000000 -0.114290  1.260911
2
Frame 604   E = -7.92422963 Ha
LI -0.000000  0.016240 -0.006204
H   0.000000 -0.113052  1.243186
2
Frame 605   E = -7.92116098 Ha
LI -0.000000  0.016089 -0.004027
H   0.000000 -0.112007  1.228036
2
Frame 606   E = -7.91846445 Ha
LI -0.000000  0.015970 -0.002253
H   0.000000 -0.111178  1.215684
2
Frame 607   E = -7.91629941 Ha
LI -0.000000  0.015885 -0.000908
H   0.000000 -0.110585  1.206324
2
Frame 608   E = -7.91480230 Ha
LI -0.000000  0.015836 -0.000015
H   0.000000 -0.110243  1.200108
2
Frame 609   E = -7.91407180 Ha
LI -0.000000  0.015825  0.000411
H   0.000000 -0.110163  1.197140
2
Frame 610   E = -7.91415729 Ha
LI -0.000000  0.015852  0.000363
H   0.000000 -0.110352  1.197470
2
Frame 611   E = -7.91505290 Ha
LI -0.000000  0.015917 -0.000157
H   0.000000 -0.110809  1.201093
2
Frame 612   E = -7.91669818 Ha
LI -0.000000  0.016021 -0.001141
H   0.000000 -0.111528  1.207946
2
Frame 613   E = -7.91898543 Ha
LI -0.000000  0.016160 -0.002573
H   0.000000 -0.112499  1.217915
2
Frame 614   E = -7.92177210 Ha
LI -0.000000  0.016333 -0.004430
H   0.000000 -0.113704  1.230838
2
Frame 615   E = -7.92489605 Ha
LI -0.000000  0.016537 -0.006682
H   0.000000 -0.115125  1.246515
2
Frame 616   E = -7.92819090 Ha
LI -0.000000  0.016769 -0.009296
H   0.000000 -0.116737  1.264715
2
Frame 617   E = -7.93149952 Ha
LI -0.000000  0.017025 -0.012237
H   0.000000 -0.118517  1.285188
2
Frame 618   E = -7.93468407 Ha
LI -0.000000  0.017301 -0.015467
H   0.000000 -0.120439  1.307673
2
Frame 619   E = -7.93763222 Ha
LI -0.000000  0.017594 -0.018947
H   0.000000 -0.122478  1.331903
2
Frame 620   E = -7.94025962 Ha
LI -0.000000  0.017899 -0.022641
H   0.000000 -0.124608  1.357617
2
Frame 621   E = -7.94250946 Ha
LI -0.000000  0.018215 -0.026512
H   0.000000 -0.126806  1.384562
2
Frame 622   E = -7.94434991 Ha
LI -0.000000  0.018538 -0.030524
H   0.000000 -0.129051  1.412497
2
Frame 623   E = -7.94577039 Ha
LI -0.000000  0.018864 -0.034647
H   0.000000 -0.131322  1.441196
2
Frame 624   E = -7.94677730 Ha
LI -0.000000  0.019191 -0.038849
H   0.000000 -0.133602  1.470451
2
Frame 625   E = -7.94738981 Ha
LI -0.000000  0.019518 -0.043104
H   0.000000 -0.135874  1.500070
2
Frame 626   E = -7.94763608 Ha
LI -0.000000  0.019841 -0.047386
H   0.000000 -0.138127  1.529882
2
Frame 627   E = -7.94754991 Ha
LI -0.000000  0.020160 -0.051674
H   0.000000 -0.140347  1.559729
2
Frame 628   E = -7.94716812 Ha
LI -0.000000  0.020473 -0.055946
H   0.000000 -0.142525  1.589472
2
Frame 629   E = -7.94652850 Ha
LI -0.000000  0.020779 -0.060186
H   0.000000 -0.144653  1.618986
2
Frame 630   E = -7.94566829 Ha
LI -0.000000  0.021076 -0.064377
H   0.000000 -0.146724  1.648160
2
Frame 631   E = -7.94462311 Ha
LI -0.000000  0.021365 -0.068505
H   0.000000 -0.148733  1.676899
2
Frame 632   E = -7.94342630 Ha
LI -0.000000  0.021644 -0.072558
H   0.000000 -0.150675  1.705115
2
Frame 633   E = -7.94210854 Ha
LI -0.000000  0.021913 -0.076525
H   0.000000 -0.152548  1.732733
2
Frame 634   E = -7.94069763 Ha
LI -0.000000  0.022172 -0.080397
H   0.000000 -0.154348  1.759688
2
Frame 635   E = -7.93921852 Ha
LI -0.000000  0.022419 -0.084166
H   0.000000 -0.156074  1.785922
2
Frame 636   E = -7.93769337 Ha
LI -0.000000  0.022657 -0.087823
H   0.000000 -0.157725  1.811385
2
Frame 637   E = -7.93614171 Ha
LI -0.000000  0.022883 -0.091364
H   0.000000 -0.159301  1.836033
2
Frame 638   E = -7.93458064 Ha
LI -0.000000  0.023099 -0.094782
H   0.000000 -0.160802  1.859828
2
Frame 639   E = -7.93302504 Ha
LI -0.000000  0.023303 -0.098073
H   0.000000 -0.162227  1.882737
2
Frame 640   E = -7.93148778 Ha
LI -0.000000  0.023497 -0.101232
H   0.000000 -0.163578  1.904732
2
Frame 641   E = -7.92997999 Ha
LI -0.000000  0.023681 -0.104257
H   0.000000 -0.164855  1.925788
2
Frame 642   E = -7.92851118 Ha
LI -0.000000  0.023854 -0.107144
H   0.000000 -0.166060  1.945883
2
Frame 643   E = -7.92708951 Ha
LI -0.000000  0.024017 -0.109890
H   0.000000 -0.167192  1.964999
2
Frame 644   E = -7.92572190 Ha
LI -0.000000  0.024169 -0.112493
H   0.000000 -0.168254  1.983121
2
Frame 645   E = -7.92441427 Ha
LI -0.000000  0.024312 -0.114951
H   0.000000 -0.169247  2.000234
2
Frame 646   E = -7.92317157 Ha
LI -0.000000  0.024445 -0.117263
H   0.000000 -0.170172  2.016327
2
Frame 647   E = -7.92199802 Ha
LI -0.000000  0.024568 -0.119426
H   0.000000 -0.171030  2.031390
2
Frame 648   E = -7.92089713 Ha
LI -0.000000  0.024682 -0.121441
H   0.000000 -0.171823  2.045413
2
Frame 649   E = -7.91987186 Ha
LI -0.000000  0.024786 -0.123305
H   0.000000 -0.172551  2.058391
2
Frame 650   E = -7.91892465 Ha
LI -0.000000  0.024882 -0.125018
H   0.000000 -0.173217  2.070316
2
Frame 651   E = -7.91805755 Ha
LI -0.000000  0.024969 -0.126579
H   0.000000 -0.173820  2.081183
2
Frame 652   E = -7.91727223 Ha
LI -0.000000  0.025047 -0.127987
H   0.000000 -0.174363  2.090988
2
Frame 653   E = -7.91657007 Ha
LI -0.000000  0.025116 -0.129243
H   0.000000 -0.174846  2.099727
2
Frame 654   E = -7.91595220 Ha
LI -0.000000  0.025177 -0.130345
H   0.000000 -0.175269  2.107397
2
Frame 655   E = -7.91541952 Ha
LI -0.000000  0.025229 -0.131292
H   0.000000 -0.175635  2.113995
2
Frame 656   E = -7.91497276 Ha
LI -0.000000  0.025274 -0.132086
H   0.000000 -0.175943  2.119520
2
Frame 657   E = -7.91461247 Ha
LI -0.000000  0.025310 -0.132725
H   0.000000 -0.176193  2.123969
2
Frame 658   E = -7.91433909 Ha
LI -0.000000  0.025337 -0.133209
H   0.000000 -0.176388  2.127341
2
Frame 659   E = -7.91415293 Ha
LI -0.000000  0.025357 -0.133539
H   0.000000 -0.176526  2.129635
2
Frame 660   E = -7.91405419 Ha
LI -0.000000  0.025369 -0.133714
H   0.000000 -0.176608  2.130851
2
Frame 661   E = -7.91404297 Ha
LI -0.000000  0.025373 -0.133733
H   0.000000 -0.176634  2.130988
2
Frame 662   E = -7.91411928 Ha
LI -0.000000  0.025369 -0.133598
H   0.000000 -0.176604  2.130047
2
Frame 663   E = -7.91428305 Ha
LI -0.000000  0.025356 -0.133308
H   0.000000 -0.176518  2.128027
2
Frame 664   E = -7.91453410 Ha
LI -0.000000  0.025336 -0.132863
H   0.000000 -0.176377  2.124929
2
Frame 665   E = -7.91487214 Ha
LI -0.000000  0.025307 -0.132263
H   0.000000 -0.176178  2.120754
2
Frame 666   E = -7.91529677 Ha
LI -0.000000  0.025271 -0.131509
H   0.000000 -0.175923  2.115503
2
Frame 667   E = -7.91580746 Ha
LI -0.000000  0.025226 -0.130600
H   0.000000 -0.175610  2.109178
2
Frame 668   E = -7.91640354 Ha
LI -0.000000  0.025172 -0.129538
H   0.000000 -0.175239  2.101781
2
Frame 669   E = -7.91708415 Ha
LI -0.000000  0.025111 -0.128322
H   0.000000 -0.174808  2.093314
2
Frame 670   E = -7.91784822 Ha
LI -0.000000  0.025040 -0.126952
H   0.000000 -0.174318  2.083780
2
Frame 671   E = -7.91869444 Ha
LI -0.000000  0.024961 -0.125430
H   0.000000 -0.173767  2.073183
2
Frame 672   E = -7.91962121 Ha
LI -0.000000  0.024873 -0.123755
H   0.000000 -0.173155  2.061527
2
Frame 673   E = -7.92062660 Ha
LI -0.000000  0.024776 -0.121930
H   0.000000 -0.172479  2.048817
2
Frame 674   E = -7.92170825 Ha
LI -0.000000  0.024670 -0.119953
H   0.000000 -0.171739  2.035059
2
Frame 675   E = -7.92286336 Ha
LI -0.000000  0.024554 -0.117828
H   0.000000 -0.170934  2.020261
2
Frame 676   E = -7.92408856 Ha
LI -0.000000  0.024429 -0.115554
H   0.000000 -0.170062  2.004429
2
Frame 677   E = -7.92537983 Ha
LI -0.000000  0.024294 -0.113133
H   0.000000 -0.169122  1.987576
2
Frame 678   E = -7.92673240 Ha
LI -0.000000  0.024149 -0.110566
H   0.000000 -0.168112  1.969710
2
Frame 679   E = -7.92814064 Ha
LI -0.000000  0.023994 -0.107856
H   0.000000 -0.167033  1.950846
2
Frame 680   E = -7.92959788 Ha
LI -0.000000  0.023828 -0.105006
H   0.000000 -0.165881  1.930999
2
Frame 681   E = -7.93109631 Ha
LI -0.000000  0.023652 -0.102016
H   0.000000 -0.164657  1.910187
2
Frame 682   E = -7.93262677 Ha
LI -0.000000  0.023466 -0.098891
H   0.000000 -0.163358  1.888429
2
Frame 683   E = -7.93417858 Ha
LI -0.000000  0.023269 -0.095633
H   0.000000 -0.161985  1.865751
2
Frame 684   E = -7.93573934 Ha
LI -0.000000  0.023060 -0.092247
H   0.000000 -0.160536  1.842180
2
Frame 685   E = -7.93729471 Ha
LI -0.000000  0.022841 -0.088737
H   0.000000 -0.159011  1.817746
2
Frame 686   E = -7.93882818 Ha
LI -0.000000  0.022612 -0.085109
H   0.000000 -0.157411  1.792488
2
Frame 687   E = -7.94032087 Ha
LI -0.000000  0.022371 -0.081368
H   0.000000 -0.155735  1.766447
2
Frame 688   E = -7.94175132 Ha
LI -0.000000  0.022119 -0.077522
H   0.000000 -0.153985  1.739671
2
Frame 689   E = -7.94309533 Ha
LI -0.000000  0.021857 -0.073578
H   0.000000 -0.152161  1.712216
2
Frame 690   E = -7.94432583 Ha
LI -0.000000  0.021585 -0.069546
H   0.000000 -0.150266  1.684146
2
Frame 691   E = -7.94541290 Ha
LI -0.000000  0.021303 -0.065436
H   0.000000 -0.148304  1.655534
2
Frame 692   E = -7.94632385 Ha
LI -0.000000  0.021012 -0.061260
H   0.000000 -0.146278  1.626462
2
Frame 693   E = -7.94702362 Ha
LI -0.000000  0.020713 -0.057031
H   0.000000 -0.144192  1.597024
2
Frame 694   E = -7.94747531 Ha
LI -0.000000  0.020406 -0.052765
H   0.000000 -0.142055  1.567328
2
Frame 695   E = -7.94764118 Ha
LI -0.000000  0.020092 -0.048480
H   0.000000 -0.139873  1.537495
2
Frame 696   E = -7.94748398 Ha
LI -0.000000  0.019774 -0.044194
H   0.000000 -0.137657  1.507659
2
Frame 697   E = -7.94696892 Ha
LI -0.000000  0.019452 -0.039930
H   0.000000 -0.135417  1.477973
2
Frame 698   E = -7.94606613 Ha
LI -0.000000  0.019129 -0.035711
H   0.000000 -0.133166  1.448606
2
Frame 699   E = -7.94475376 Ha
LI -0.000000  0.018806 -0.031565
H   0.000000 -0.130921  1.419743
2
Frame 700   E = -7.94302175 Ha
LI -0.000000  0.018487 -0.027521
H   0.000000 -0.128698  1.391589
2
Frame 701   E = -7.94087587 Ha
LI -0.000000  0.018174 -0.023610
H   0.000000 -0.126517  1.364365
2
Frame 702   E = -7.93834208 Ha
LI -0.000000  0.017870 -0.019867
H   0.000000 -0.124399  1.338308
2
Frame 703   E = -7.93547040 Ha
LI -0.000000  0.017578 -0.016328
H   0.000000 -0.122369  1.313668
2
Frame 704   E = -7.93233789 Ha
LI -0.000000  0.017302 -0.013029
H   0.000000 -0.120450  1.290705
2
Frame 705   E = -7.92904972 Ha
LI -0.000000  0.017047 -0.010010
H   0.000000 -0.118670  1.269684
2
Frame 706   E = -7.92573750 Ha
LI -0.000000  0.016814 -0.007307
H   0.000000 -0.117053  1.250868
2
Frame 707   E = -7.92255413 Ha
LI -0.000000  0.016609 -0.004958
H   0.000000 -0.115626  1.234512
2
Frame 708   E = -7.91966468 Ha
LI -0.000000  0.016435 -0.002995
H   0.000000 -0.114411  1.220852
2
Frame 709   E = -7.91723376 Ha
LI -0.000000  0.016294 -0.001450
H   0.000000 -0.113432  1.210097
2
Frame 710   E = -7.91541043 Ha
LI -0.000000  0.016190 -0.000347
H   0.000000 -0.112704  1.202419
2
Frame 711   E = -7.91431269 Ha
LI -0.000000  0.016123  0.000295
H   0.000000 -0.112242  1.197945
2
Frame 712   E = -7.91401415 Ha
LI -0.000000  0.016096  0.000467
H   0.000000 -0.112053  1.196751
2
Frame 713   E = -7.91453517 Ha
LI -0.000000  0.016108  0.000164
H   0.000000 -0.112138  1.198859
2
Frame 714   E = -7.91584038 Ha
LI -0.000000  0.016159 -0.000608
H   0.000000 -0.112494  1.204233
2
Frame 715   E = -7.91784302 Ha
LI -0.000000  0.016248 -0.001836
H   0.000000 -0.113111  1.212781
2
Frame 716   E = -7.92041517 Ha
LI -0.000000  0.016372 -0.003500
H   0.000000 -0.113974  1.224363
2
Frame 717   E = -7.92340197 Ha
LI -0.000000  0.016529 -0.005573
H   0.000000 -0.115064  1.238797
2
Frame 718   E = -7.92663725 Ha
LI -0.000000  0.016715 -0.008025
H   0.000000 -0.116359  1.255864
2
Frame 719   E = -7.92995812 Ha
LI -0.000000  0.016926 -0.010820
H   0.000000 -0.117834  1.275324
2
Frame 720   E = -7.93321671 Ha
LI -0.000000  0.017161 -0.013922
H   0.000000 -0.119463  1.296919
2
Frame 721   E = -7.93628822 Ha
LI -0.000000  0.017413 -0.017293
H   0.000000 -0.121221  1.320383
2
Frame 722   E = -7.93907507 Ha
LI -0.000000  0.017680 -0.020894
H   0.000000 -0.123081  1.345454
2
Frame 723   E = -7.94150773 Ha
LI -0.000000  0.017959 -0.024689
H   0.000000 -0.125020  1.371872
2
Frame 724   E = -7.94354306 Ha
LI -0.000000  0.018245 -0.028642
H   0.000000 -0.127014  1.399391
2
Frame 725   E = -7.94516099 Ha
LI -0.000000  0.018537 -0.032720
H   0.000000 -0.129043  1.427778
2
Frame 726   E = -7.94636047 Ha
LI -0.000000  0.018830 -0.036891
H   0.000000 -0.131088  1.456817
2
Frame 727   E = -7.94715517 Ha
LI -0.000000  0.019124 -0.041127
H   0.000000 -0.133133  1.486308
2
Frame 728   E = -7.94756947 Ha
LI -0.000000  0.019416 -0.045402
H   0.000000 -0.135163  1.516069
2
Frame 729   E = -7.94763485 Ha
LI -0.000000  0.019703 -0.049693
H   0.000000 -0.137166  1.545937
2
Frame 730   E = -7.94738703 Ha
LI -0.000000  0.019986 -0.053977
H   0.000000 -0.139131  1.575764
2
Frame 731   E = -7.94686354 Ha
LI -0.000000  0.020261 -0.058237
H   0.000000 -0.141051  1.605418
2
Frame 732   E = -7.94610204 Ha
LI -0.000000  0.020529 -0.062455
H   0.000000 -0.142916  1.634783
2
Frame 733   E = -7.94513902 Ha
LI -0.000000  0.020789 -0.066617
H   0.000000 -0.144723  1.663755
2
Frame 734   E = -7.94400896 Ha
LI -0.000000  0.021039 -0.070709
H   0.000000 -0.146466  1.692243
2
Frame 735   E = -7.94274383 Ha
LI -0.000000  0.021280 -0.074720
H   0.000000 -0.148141  1.720167
2
Frame 736   E = -7.94137279 Ha
LI -0.000000  0.021511 -0.078640
H   0.000000 -0.149747  1.747457
2
Frame 737   E = -7.93992215 Ha
LI -0.000000  0.021731 -0.082461
H   0.000000 -0.151282  1.774052
2
Frame 738   E = -7.93841536 Ha
LI -0.000000  0.021941 -0.086173
H   0.000000 -0.152744  1.799897
2
Frame 739   E = -7.93687317 Ha
LI -0.000000  0.022141 -0.089771
H   0.000000 -0.154132  1.824947
2
Frame 740   E = -7.93531381 Ha
LI -0.000000  0.022330 -0.093250
H   0.000000 -0.155448  1.849160
2
Frame 741   E = -7.93375318 Ha
LI -0.000000  0.022508 -0.096603
H   0.000000 -0.156691  1.872501
2
Frame 742   E = -7.93220509 Ha
LI -0.000000  0.022676 -0.099826
H   0.000000 -0.157861  1.894940
2
Frame 743   E = -7.93068147 Ha
LI -0.000000  0.022834 -0.102916
H   0.000000 -0.158960  1.916451
2
Frame 744   E = -7.92919256 Ha
LI -0.000000  0.022982 -0.105869
H   0.000000 -0.159989  1.937009
2
Frame 745   E = -7.92774716 Ha
LI -0.000000  0.023120 -0.108683
H   0.000000 -0.160949  1.956596
2
Frame 746   E = -7.92635275 Ha
LI -0.000000  0.023248 -0.111354
H   0.000000 -0.161840  1.975195
2
Frame 747   E = -7.92501572 Ha
LI -0.000000  0.023366 -0.113882
H   0.000000 -0.162666  1.992790
2
Frame 748   E = -7.92374146 Ha
LI -0.000000  0.023476 -0.116263
H   0.000000 -0.163426  2.009370
2
Frame 749   E = -7.92253454 Ha
LI -0.000000  0.023576 -0.118497
H   0.000000 -0.164123  2.024923
2
Frame 750   E = -7.92139878 Ha
LI -0.000000  0.023667 -0.120583
H   0.000000 -0.164757  2.039439
2
Frame 751   E = -7.92033741 Ha
LI -0.000000  0.023749 -0.122518
H   0.000000 -0.165330  2.052912
2
Frame 752   E = -7.91935310 Ha
LI -0.000000  0.023823 -0.124302
H   0.000000 -0.165844  2.065334
2
Frame 753   E = -7.91844810 Ha
LI -0.000000  0.023888 -0.125935
H   0.000000 -0.166300  2.076699
2
Frame 754   E = -7.91762424 Ha
LI -0.000000  0.023946 -0.127415
H   0.000000 -0.166698  2.087003
2
Frame 755   E = -7.91688306 Ha
LI -0.000000  0.023995 -0.128742
H   0.000000 -0.167040  2.096242
2
Frame 756   E = -7.91622579 Ha
LI -0.000000  0.024036 -0.129916
H   0.000000 -0.167327  2.104412
2
Frame 757   E = -7.91565345 Ha
LI -0.000000  0.024069 -0.130935
H   0.000000 -0.167560  2.111509
2
Frame 758   E = -7.91516685 Ha
LI -0.000000  0.024095 -0.131801
H   0.000000 -0.167739  2.117533
2
Frame 759   E = -7.91476663 Ha
LI -0.000000  0.024113 -0.132511
H   0.000000 -0.167866  2.122481
2
Frame 760   E = -7.91445328 Ha
LI -0.000000  0.024124 -0.133067
H   0.000000 -0.167941  2.126352
2
Frame 761   E = -7.91422718 Ha
LI -0.000000  0.024127 -0.133468
H   0.000000 -0.167964  2.129143
2
Frame 762   E = -7.91408857 Ha
LI -0.000000  0.024123 -0.133714
H   0.000000 -0.167936  2.130856
2
Frame 763   E = -7.91403762 Ha
LI -0.000000  0.024112 -0.133805
H   0.000000 -0.167856  2.131488
2
Frame 764   E = -7.91407439 Ha
LI -0.000000  0.024093 -0.133741
H   0.000000 -0.167726  2.131041
2
Frame 765   E = -7.91419883 Ha
LI -0.000000  0.024067 -0.133521
H   0.000000 -0.167545  2.129513
2
Frame 766   E = -7.91441082 Ha
LI -0.000000  0.024034 -0.133147
H   0.000000 -0.167314  2.126906
2
Frame 767   E = -7.91471013 Ha
LI -0.000000  0.023993 -0.132617
H   0.000000 -0.167031  2.123220
2
Frame 768   E = -7.91509641 Ha
LI -0.000000  0.023945 -0.131933
H   0.000000 -0.166696  2.118456
2
Frame 769   E = -7.91556921 Ha
LI -0.000000  0.023890 -0.131094
H   0.000000 -0.166310  2.112616
2
Frame 770   E = -7.91612790 Ha
LI -0.000000  0.023827 -0.130101
H   0.000000 -0.165871  2.105702
2
Frame 771   E = -7.91677172 Ha
LI -0.000000  0.023756 -0.128954
H   0.000000 -0.165378  2.097714
2
Frame 772   E = -7.91749970 Ha
LI -0.000000  0.023678 -0.127653
H   0.000000 -0.164832  2.088658
2
Frame 773   E = -7.91831065 Ha
LI -0.000000  0.023591 -0.126198
H   0.000000 -0.164231  2.078534
2
Frame 774   E = -7.91920309 Ha
LI -0.000000  0.023497 -0.124592
H   0.000000 -0.163574  2.067349
2
Frame 775   E = -7.92017523 Ha
LI -0.000000  0.023394 -0.122833
H   0.000000 -0.162861  2.055106
2
Frame 776   E = -7.92122493 Ha
LI -0.000000  0.023284 -0.120923
H   0.000000 -0.162089  2.041810
2
Frame 777   E = -7.92234957 Ha
LI -0.000000  0.023164 -0.118863
H   0.000000 -0.161258  2.027469
2
Frame 778   E = -7.92354603 Ha
LI -0.000000  0.023036 -0.116654
H   0.000000 -0.160367  2.012091
2
Frame 779   E = -7.92481058 Ha
LI -0.000000  0.022899 -0.114297
H   0.000000 -0.159415  1.995683
2
Frame 780   E = -7.92613880 Ha
LI -0.000000  0.022753 -0.111794
H   0.000000 -0.158399  1.978257
2
Frame 781   E = -7.92752542 Ha
LI -0.000000  0.022598 -0.109146
H   0.000000 -0.157319  1.959826
2
Frame 782   E = -7.92896423 Ha
LI -0.000000  0.022434 -0.106356
H   0.000000 -0.156174  1.940403
2
Frame 783   E = -7.93044791 Ha
LI -0.000000  0.022260 -0.103426
H   0.000000 -0.154962  1.920004
2
Frame 784   E = -7.93196790 Ha
LI -0.000000  0.022076 -0.100359
H   0.000000 -0.153682  1.898651
2
Frame 785   E = -7.93351416 Ha
LI -0.000000  0.021882 -0.097157
H   0.000000 -0.152333  1.876364
2
Frame 786   E = -7.93507505 Ha
LI -0.000000  0.021678 -0.093826
H   0.000000 -0.150915  1.853169
2
Frame 787   E = -7.93663705 Ha
LI -0.000000  0.021465 -0.090368
H   0.000000 -0.149426  1.829097
2
Frame 788   E = -7.93818456 Ha
LI -0.000000  0.021241 -0.086789
H   0.000000 -0.147867  1.804183
2
Frame 789   E = -7.93969973 Ha
LI -0.000000  0.021007 -0.083094
H   0.000000 -0.146237  1.778465
2
Frame 790   E = -7.94116217 Ha
LI -0.000000  0.020762 -0.079291
H   0.000000 -0.144538  1.751989
2
Frame 791   E = -7.94254881 Ha
LI -0.000000  0.020508 -0.075387
H   0.000000 -0.142768  1.724809
2
Frame 792   E = -7.94383375 Ha
LI -0.000000  0.020244 -0.071390
H   0.000000 -0.140932  1.696984
2
Frame 793   E = -7.94498822 Ha
LI -0.000000  0.019971 -0.067310
H   0.000000 -0.139029  1.668582
2
Frame 794   E = -7.94598060 Ha
LI -0.000000  0.019689 -0.063159
H   0.000000 -0.137065  1.639684
2
Frame 795   E = -7.94677670 Ha
LI -0.000000  0.019398 -0.058949
H   0.000000 -0.135042  1.610377
2
Frame 796   E = -7.94734021 Ha
LI -0.000000  0.019100 -0.054695
H   0.000000 -0.132966  1.580764
2
Frame 797   E = -7.94763351 Ha
LI -0.000000  0.018795 -0.050414
H   0.000000 -0.130843  1.550959
2
Frame 798   E = -7.94761884 Ha
LI -0.000000  0.018485 -0.046124
H   0.000000 -0.128682  1.521092
2
Frame 799   E = -7.94725999 Ha
LI -0.000000  0.018170 -0.041845
H   0.000000 -0.126492  1.491308
2
Frame 800   E = -7.94652456 Ha
LI -0.000000  0.017853 -0.037602
H   0.000000 -0.124283  1.461768
2
Frame 801   E = -7.94538681 Ha
LI -0.000000  0.017535 -0.033420
H   0.000000 -0.122070  1.432653
2
Frame 802   E = -7.94383114 Ha
LI -0.000000  0.017218 -0.029327
H   0.000000 -0.119867  1.404158
2
Frame 803   E = -7.94185608 Ha
LI -0.000000  0.016906 -0.025354
H   0.000000 -0.117690  1.376499
2
Frame 804   E = -7.93947857 Ha
LI -0.000000  0.016600 -0.021534
H   0.000000 -0.115560  1.349906
2
Frame 805   E = -7.93673813 Ha
LI -0.000000  0.016303 -0.017902
H   0.000000 -0.113495  1.324625
2
Frame 806   E = -7.93370033 Ha
LI -0.000000  0.016019 -0.014496
H   0.000000 -0.111519  1.300913
2
Frame 807   E = -7.93045875 Ha
LI -0.000000  0.015751 -0.011353
H   0.000000 -0.109654  1.279035
2
Frame 808   E = -7.92713460 Ha
LI -0.000000  0.015503 -0.008512
H   0.000000 -0.107925  1.259255
2
Frame 809   E = -7.92387310 Ha
LI -0.000000  0.015277 -0.006009
H   0.000000 -0.106353  1.241834
2
Frame 810   E = -7.92083598 Ha
LI -0.000000  0.015077 -0.003881
H   0.000000 -0.104961  1.227016
2
Frame 811   E = -7.91819024 Ha
LI -0.000000  0.014906 -0.002158
H   0.000000 -0.103768  1.215025
2
Frame 812   E = -7.91609380 Ha
LI -0.000000  0.014766 -0.000869
H   0.000000 -0.102793  1.206050
2
Frame 813   E = -7.91467982 Ha
LI -0.000000  0.014659 -0.000034
H   0.000000 -0.102048  1.200237
2
Frame 814   E = -7.91404212 Ha
LI -0.000000  0.014586  0.000333
H   0.000000 -0.101541  1.197685
2
Frame 815   E = -7.91422410 Ha
LI -0.000000  0.014548  0.000224
H   0.000000 -0.101275  1.198440
2
Frame 816   E = -7.91521344 Ha
LI -0.000000  0.014544 -0.000357
H   0.000000 -0.101248  1.202487
2
Frame 817   E = -7.91694365 Ha
LI -0.000000  0.014573 -0.001402
H   0.000000 -0.101453  1.209760
2
Frame 818   E = -7.91930207 Ha
LI -0.000000  0.014634 -0.002893
H   0.000000 -0.101878  1.220137
2
Frame 819   E = -7.92214271 Ha
LI -0.000000  0.014725 -0.004805
H   0.000000 -0.102506  1.233452
2
Frame 820   E = -7.92530176 Ha
LI -0.000000  0.014841 -0.007110
H   0.000000 -0.103318  1.249500
2
Frame 821   E = -7.92861284 Ha
LI -0.000000  0.014981 -0.009775
H   0.000000 -0.104291  1.268047
2
Frame 822   E = -7.93192020 Ha
LI -0.000000  0.015141 -0.012762
H   0.000000 -0.105404  1.288840
2
Frame 823   E = -7.93508840 Ha
LI -0.000000  0.015317 -0.016033
H   0.000000 -0.106632  1.311617
2
Frame 824   E = -7.93800798 Ha
LI -0.000000  0.015507 -0.019552
H   0.000000 -0.107953  1.336111
2
Frame 825   E = -7.94059769 Ha
LI -0.000000  0.015707 -0.023279
H   0.000000 -0.109344  1.362060
2
Frame 826   E = -7.94280367 Ha
LI -0.000000  0.015914 -0.027180
H   0.000000 -0.110785  1.389212
2
Frame 827   E = -7.94459674 Ha
LI -0.000000  0.016125 -0.031218
H   0.000000 -0.112257  1.417326
2
Frame 828   E = -7.94596852 Ha
LI -0.000000  0.016339 -0.035363
H   0.000000 -0.113743  1.446179
2
Frame 829   E = -7.94692719 Ha
LI -0.000000  0.016552 -0.039584
H   0.000000 -0.115229  1.475564
2
Frame 830   E = -7.94749326 Ha
LI -0.000000  0.016764 -0.043854
H   0.000000 -0.116701  1.505291
2
Frame 831   E = -7.94769582 Ha
LI -0.000000  0.016972 -0.048149
H   0.000000 -0.118148  1.535189
2
Frame 832   E = -7.94756928 Ha
LI -0.000000  0.017175 -0.052446
H   0.000000 -0.119562  1.565102
2
Frame 833   E = -7.94715081 Ha
LI -0.000000  0.017372 -0.056725
H   0.000000 -0.120934  1.594893
2
Frame 834   E = -7.94647833 Ha
LI -0.000000  0.017562 -0.060969
H   0.000000 -0.122259  1.624439
2
Frame 835   E = -7.94558908 Ha
LI -0.000000  0.017745 -0.065162
H   0.000000 -0.123532  1.653629
2
Frame 836   E = -7.94451856 Ha
LI -0.000000  0.017920 -0.069291
H   0.000000 -0.124749  1.682369
2
Frame 837   E = -7.94329992 Ha
LI -0.000000  0.018086 -0.073342
H   0.000000 -0.125907  1.710574
2
Frame 838   E = -7.94196361 Ha
LI -0.000000  0.018244 -0.077306
H   0.000000 -0.127006  1.738168
2
Frame 839   E = -7.94053720 Ha
LI -0.000000  0.018393 -0.081173
H   0.000000 -0.128043  1.765087
2
Frame 840   E = -7.93904538 Ha
LI -0.000000  0.018533 -0.084935
H   0.000000 -0.129018  1.791275
2
Frame 841   E = -7.93751006 Ha
LI -0.000000  0.018664 -0.088584
H   0.000000 -0.129932  1.816682
2
Frame 842   E = -7.93595055 Ha
LI -0.000000  0.018787 -0.092115
H   0.000000 -0.130785  1.841264
2
Frame 843   E = -7.93438373 Ha
LI -0.000000  0.018901 -0.095523
H   0.000000 -0.131577  1.864984
2
Frame 844   E = -7.93282430 Ha
LI -0.000000  0.019006 -0.098802
H   0.000000 -0.132310  1.887810
2
Frame 845   E = -7.93128496 Ha
LI -0.000000  0.019103 -0.101948
H   0.000000 -0.132985  1.909713
2
Frame 846   E = -7.92977667 Ha
LI -0.000000  0.019192 -0.104958
H   0.000000 -0.133604  1.930670
2
Frame 847   E = -7.92830884 Ha
LI -0.000000  0.019273 -0.107830
H   0.000000 -0.134167  1.950658
2
Frame 848   E = -7.92688948 Ha
LI -0.000000  0.019346 -0.110559
H   0.000000 -0.134677  1.969661
2
Frame 849   E = -7.92552545 Ha
LI -0.000000  0.019412 -0.113145
H   0.000000 -0.135136  1.987661
2
Frame 850   E = -7.92422255 Ha
LI -0.000000  0.019470 -0.115585
H   0.000000 -0.135544  2.004647
2
Frame 851   E = -7.92298570 Ha
LI -0.000000  0.019522 -0.117877
H   0.000000 -0.135904  2.020605
2
Frame 852   E = -7.92181902 Ha
LI -0.000000  0.019567 -0.120021
H   0.000000 -0.136218  2.035527
2
Frame 853   E = -7.92072600 Ha
LI -0.000000  0.019606 -0.122014
H   0.000000 -0.136486  2.049403
2
Frame 854   E = -7.91970955 Ha
LI -0.000000  0.019638 -0.123856
H   0.000000 -0.136710  2.062227
2
Frame 855   E = -7.91877208 Ha
LI -0.000000  0.019664 -0.125546
H   0.000000 -0.136893  2.073992
2
Frame 856   E = -7.91791562 Ha
LI -0.000000  0.019685 -0.127083
H   0.000000 -0.137034  2.084693
2
Frame 857   E = -7.91714181 Ha
LI -0.000000  0.019699 -0.128467
H   0.000000 -0.137136  2.094326
2
Frame 858   E = -7.91645203 Ha
LI -0.000000  0.019708 -0.129697
H   0.000000 -0.137200  2.102887
2
Frame 859   E = -7.91584738 Ha
LI -0.000000  0.019712 -0.130772
H   0.000000 -0.137227  2.110372
2
Frame 860   E = -7.91532876 Ha
LI -0.000000  0.019711 -0.131692
H   0.000000 -0.137217  2.116780
2
Frame 861   E = -7.91489689 Ha
LI -0.000000  0.019704 -0.132458
H   0.000000 -0.137171  2.122108
2
Frame 862   E = -7.91455232 Ha
LI -0.000000  0.019693 -0.133068
H   0.000000 -0.137091  2.126355
2
Frame 863   E = -7.91429547 Ha
LI -0.000000  0.019676 -0.133522
H   0.000000 -0.136976  2.129519
2
Frame 864   E = -7.91412666 Ha
LI -0.000000  0.019655 -0.133821
H   0.000000 -0.136828  2.131599
2
Frame 865   E = -7.91404607 Ha
LI -0.000000  0.019629 -0.133964
H   0.000000 -0.136647  2.132595
2
Frame 866   E = -7.91405379 Ha
LI -0.000000  0.019598 -0.133951
H   0.000000 -0.136432  2.132507
2
Frame 867   E = -7.91414985 Ha
LI -0.000000  0.019562 -0.133783
H   0.000000 -0.136185  2.131334
2
Frame 868   E = -7.91433412 Ha
LI -0.000000  0.019522 -0.133459
H   0.000000 -0.135904  2.129077
2
Frame 869   E = -7.91460642 Ha
LI -0.000000  0.019477 -0.132979
H   0.000000 -0.135590  2.125736
2
Frame 870   E = -7.91496645 Ha
LI -0.000000  0.019427 -0.132343
H   0.000000 -0.135243  2.121312
2
Frame 871   E = -7.91541376 Ha
LI -0.000000  0.019373 -0.131553
H   0.000000 -0.134862  2.115807
2
Frame 872   E = -7.91594780 Ha
LI -0.000000  0.019313 -0.130607
H   0.000000 -0.134447  2.109222
2
Frame 873   E = -7.91656784 Ha
LI -0.000000  0.019248 -0.129506
H   0.000000 -0.133997  2.101560
2
Frame 874   E = -7.91727295 Ha
LI -0.000000  0.019178 -0.128251
H   0.000000 -0.133511  2.092822
2
Frame 875   E = -7.91806200 Ha
LI -0.000000  0.019103 -0.126842
H   0.000000 -0.132989  2.083013
2
Frame 876   E = -7.91893360 Ha
LI -0.000000  0.019023 -0.125279
H   0.000000 -0.132429  2.072135
2
Frame 877   E = -7.91988603 Ha
LI -0.000000  0.018937 -0.123564
H   0.000000 -0.131831  2.060193
2
Frame 878   E = -7.92091723 Ha
LI -0.000000  0.018845 -0.121696
H   0.000000 -0.131193  2.047194
2
Frame 879   E = -7.92202471 Ha
LI -0.000000  0.018748 -0.119678
H   0.000000 -0.130514  2.033142
2
Frame 880   E = -7.92320546 Ha
LI -0.000000  0.018644 -0.117509
H   0.000000 -0.129794  2.018045
2
Frame 881   E = -7.92445591 Ha
LI -0.000000  0.018535 -0.115192
H   0.000000 -0.129029  2.001913
2
Frame 882   E = -7.92577179 Ha
LI -0.000000  0.018418 -0.112727
H   0.000000 -0.128220  1.984754
2
Frame 883   E = -7.92714804 Ha
LI -0.000000  0.018295 -0.110117
H   0.000000 -0.127364  1.966582
2
Frame 884   E = -7.92857867 Ha
LI -0.000000  0.018166 -0.107363
H   0.000000 -0.126460  1.947410
2
Frame 885   E = -7.93005663 Ha
LI -0.000000  0.018029 -0.104467
H   0.000000 -0.125507  1.927253
2
Frame 886   E = -7.93157363 Ha
LI -0.000000  0.017885 -0.101433
H   0.000000 -0.124504  1.906131
2
Frame 887   E = -7.93312000 Ha
LI -0.000000  0.017733 -0.098264
H   0.000000 -0.123448  1.884065
2
Frame 888   E = -7.93468444 Ha
LI -0.000000  0.017573 -0.094962
H   0.000000 -0.122338  1.861081
2
Frame 889   E = -7.93625387 Ha
LI -0.000000  0.017406 -0.091533
H   0.000000 -0.121174  1.837207
2
Frame 890   E = -7.93781316 Ha
LI -0.000000  0.017231 -0.087980
H   0.000000 -0.119955  1.812476
2
Frame 891   E = -7.93934494 Ha
LI -0.000000  0.017048 -0.084310
H   0.000000 -0.118679  1.786927
2
Frame 892   E = -7.94082938 Ha
LI -0.000000  0.016856 -0.080529
H   0.000000 -0.117346  1.760604
2
Frame 893   E = -7.94224398 Ha
LI -0.000000  0.016657 -0.076644
H   0.000000 -0.115957  1.733559
2
Frame 894   E = -7.94356341 Ha
LI -0.000000  0.016449 -0.072664
H   0.000000 -0.114511  1.705849
2
Frame 895   E = -7.94475946 Ha
LI -0.000000  0.016233 -0.068597
H   0.000000 -0.113009  1.677542
2
Frame 896   E = -7.94580103 Ha
LI -0.000000  0.016010 -0.064456
H   0.000000 -0.111454  1.648713
2
Frame 897   E = -7.94665436 Ha
LI -0.000000  0.015779 -0.060253
H   0.000000 -0.109847  1.619450
2
Frame 898   E = -7.94728338 Ha
LI -0.000000  0.015541 -0.056001
H   0.000000 -0.108192  1.589851
2
Frame 899   E = -7.94765048 Ha
LI -0.000000  0.015297 -0.051717
H   0.000000 -0.106492  1.560028
2
Frame 900   E = -7.94771757 Ha
LI -0.000000  0.015047 -0.047419
H   0.000000 -0.104753  1.530109
2
Frame 901   E = -7.94744767 Ha
LI -0.000000  0.014793 -0.043127
H   0.000000 -0.102982  1.500233
2
Frame 902   E = -7.94680697 Ha
LI -0.000000  0.014535 -0.038865
H   0.000000 -0.101186  1.470560
2
Frame 903   E = -7.94576765 Ha
LI -0.000000  0.014275 -0.034657
H   0.000000 -0.099375  1.441266
2
Frame 904   E = -7.94431115 Ha
LI -0.000000  0.014014 -0.030531
H   0.000000 -0.097560  1.412544
2
Frame 905   E = -7.94243214 Ha
LI -0.000000  0.013755 -0.026518
H   0.000000 -0.095754  1.384605
2
Frame 906   E = -7.94014275 Ha
LI -0.000000  0.013498 -0.022650
H   0.000000 -0.093969  1.357678
2
Frame 907   E = -7.93747690 Ha
LI -0.000000  0.013248 -0.018962
H   0.000000 -0.092223  1.332005
2
Frame 908   E = -7.93449394 Ha
LI -0.000000  0.013005 -0.015491
H   0.000000 -0.090533  1.307843
2
Frame 909   E = -7.93128117 Ha
LI -0.000000  0.012772 -0.012276
H   0.000000 -0.088914  1.285456
2
Frame 910   E = -7.92795405 Ha
LI -0.000000  0.012553 -0.009353
H   0.000000 -0.087387  1.265112
2
Frame 911   E = -7.92465338 Ha
LI -0.000000  0.012349 -0.006762
H   0.000000 -0.085969  1.247073
2
Frame 912   E = -7.92153878 Ha
LI -0.000000  0.012164 -0.004538
H   0.000000 -0.084678  1.231590
2
Frame 913   E = -7.91877809 Ha
LI -0.000000  0.011999 -0.002714
H   0.000000 -0.083529  1.218893
2
Frame 914   E = -7.91653366 Ha
LI -0.000000  0.011856 -0.001319
H   0.000000 -0.082536  1.209181
2
Frame 915   E = -7.91494660 Ha
LI -0.000000  0.011737 -0.000375
H   0.000000 -0.081710  1.202612
2
Frame 916   E = -7.91412157 Ha
LI -0.000000  0.011644  0.000101
H   0.000000 -0.081057  1.199298
2
Frame 917   E = -7.91411466 Ha
LI -0.000000  0.011575  0.000101
H   0.000000 -0.080580  1.199295
2
Frame 918   E = -7.91492651 Ha
LI -0.000000  0.011532 -0.000374
H   0.000000 -0.080278  1.202605
2
Frame 919   E = -7.91650225 Ha
LI -0.000000  0.011513 -0.001318
H   0.000000 -0.080145  1.209172
2
Frame 920   E = -7.91873817 Ha
LI -0.000000  0.011516 -0.002713
H   0.000000 -0.080171  1.218885
2
Frame 921   E = -7.92149378 Ha
LI -0.000000  0.011541 -0.004538
H   0.000000 -0.080345  1.231588
2
Frame 922   E = -7.92460699 Ha
LI -0.000000  0.011585 -0.006763
H   0.000000 -0.080649  1.247082
2
Frame 923   E = -7.92790981 Ha
LI -0.000000  0.011645 -0.009357
H   0.000000 -0.081069  1.265138
2
Frame 924   E = -7.93124222 Ha
LI -0.000000  0.011719 -0.012283
H   0.000000 -0.081585  1.285506
2
Frame 925   E = -7.93446278 Ha
LI -0.000000  0.011805 -0.015503
H   0.000000 -0.082178  1.307922
2
Frame 926   E = -7.93745530 Ha
LI -0.000000  0.011899 -0.018979
H   0.000000 -0.082832  1.332120
2
Frame 927   E = -7.94013175 Ha
LI -0.000000  0.011999 -0.022672
H   0.000000 -0.083530  1.357834
2
Frame 928   E = -7.94243207 Ha
LI -0.000000  0.012103 -0.026547
H   0.000000 -0.084255  1.384808
2
Frame 929   E = -7.94432176 Ha
LI -0.000000  0.012209 -0.030568
H   0.000000 -0.084993  1.412798
2
Frame 930   E = -7.94578822 Ha
LI -0.000000  0.012315 -0.034701
H   0.000000 -0.085732  1.441575
2
Frame 931   E = -7.94683641 Ha
LI -0.000000  0.012420 -0.038918
H   0.000000 -0.086461  1.470928
2
Frame 932   E = -7.94748466 Ha
LI -0.000000  0.012522 -0.043189
H   0.000000 -0.087170  1.500661
2
Frame 933   E = -7.94776067 Ha
LI -0.000000  0.012620 -0.047489
H   0.000000 -0.087853  1.530599
2
Frame 934   E = -7.94769817 Ha
LI -0.000000  0.012713 -0.051796
H   0.000000 -0.088503  1.560583
2
Frame 935   E = -7.94733419 Ha
LI -0.000000  0.012801 -0.056090
H   0.000000 -0.089115  1.590469
2
Frame 936   E = -7.94670686 Ha
LI -0.000000  0.012883 -0.060351
H   0.000000 -0.089686  1.620132
2
Frame 937   E = -7.94585392 Ha
LI -0.000000  0.012959 -0.064563
H   0.000000 -0.090214  1.649459
2
Frame 938   E = -7.94481154 Ha
LI -0.000000  0.013028 -0.068713
H   0.000000 -0.090696  1.678350
2
Frame 939   E = -7.94361362 Ha
LI -0.000000  0.013091 -0.072788
H   0.000000 -0.091132  1.706718
2
Frame 940   E = -7.94229141 Ha
LI -0.000000  0.013147 -0.076777
H   0.000000 -0.091522  1.734486
2
Frame 941   E = -7.94087327 Ha
LI -0.000000  0.013196 -0.080670
H   0.000000 -0.091866  1.761588
2
Frame 942   E = -7.93938465 Ha
LI -0.000000  0.013239 -0.084459
H   0.000000 -0.092165  1.787964
2
Frame 943   E = -7.93784819 Ha
LI -0.000000  0.013276 -0.088136
H   0.000000 -0.092420  1.813562
2
Frame 944   E = -7.93628385 Ha
LI -0.000000  0.013306 -0.091695
H   0.000000 -0.092633  1.838340
2
Frame 945   E = -7.93470911 Ha
LI -0.000000  0.013331 -0.095131
H   0.000000 -0.092805  1.862257
2
Frame 946   E = -7.93313922 Ha
LI -0.000000  0.013350 -0.098438
H   0.000000 -0.092939  1.885281
2
Frame 947   E = -7.93158735 Ha
LI -0.000000  0.013364 -0.101613
H   0.000000 -0.093036  1.907381
2
Frame 948   E = -7.93006490 Ha
LI -0.000000  0.013373 -0.104651
H   0.000000 -0.093098  1.928534
2
Frame 949   E = -7.92858162 Ha
LI -0.000000  0.013378 -0.107551
H   0.000000 -0.093128  1.948717
2
Frame 950   E = -7.92714590 Ha
LI -0.000000  0.013378 -0.110308
H   0.000000 -0.093128  1.967911
2
Frame 951   E = -7.92576484 Ha
LI -0.000000  0.013373 -0.112921
H   0.000000 -0.093099  1.986100
2
Frame 952   E = -7.92444450 Ha
LI -0.000000  0.013366 -0.115387
H   0.000000 -0.093045  2.003270
2
Frame 953   E = -7.92319002 Ha
LI -0.000000  0.013354 -0.117705
H   0.000000 -0.092966  2.019409
2
Frame 954   E = -7.92200570 Ha
LI -0.000000  0.013340 -0.119874
H   0.000000 -0.092864  2.034508
2
Frame 955   E = -7.92089519 Ha
LI -0.000000  0.013322 -0.121892
H   0.000000 -0.092743  2.048556
2
Frame 956   E = -7.91986153 Ha
LI -0.000000  0.013302 -0.123758
H   0.000000 -0.092603  2.061547
2
Frame 957   E = -7.91890726 Ha
LI -0.000000  0.013280 -0.125472
H   0.000000 -0.092446  2.073474
2
Frame 958   E = -7.91803448 Ha
LI -0.000000  0.013255 -0.127031
H   0.000000 -0.092274  2.084331
2
Frame 959   E = -7.91724495 Ha
LI -0.000000  0.013228 -0.128437
H   0.000000 -0.092088  2.094115
2
Frame 960   E = -7.91654010 Ha
LI -0.000000  0.013200 -0.129687
H   0.000000 -0.091889  2.102821
2
Frame 961   E = -7.91592109 Ha
LI -0.000000  0.013169 -0.130783
H   0.000000 -0.091679  2.110447
2
Frame 962   E = -7.91538888 Ha
LI -0.000000  0.013138 -0.131722
H   0.000000 -0.091458  2.116989
2
Frame 963   E = -7.91494422 Ha
LI -0.000000  0.013105 -0.132506
H   0.000000 -0.091229  2.122445
2
Frame 964   E = -7.91458771 Ha
LI -0.000000  0.013070 -0.133134
H   0.000000 -0.090991  2.126813
2
Frame 965   E = -7.91431979 Ha
LI -0.000000  0.013035 -0.133605
H   0.000000 -0.090745  2.130093
2
Frame 966   E = -7.91414080 Ha
LI -0.000000  0.012999 -0.133919
H   0.000000 -0.090491  2.132283
2
Frame 967   E = -7.91405096 Ha
LI -0.000000  0.012961 -0.134077
H   0.000000 -0.090231  2.133383
2
Frame 968   E = -7.91405036 Ha
LI -0.000000  0.012923 -0.134079
H   0.000000 -0.089965  2.133392
2
Frame 969   E = -7.91413902 Ha
LI -0.000000  0.012884 -0.133923
H   0.000000 -0.089692  2.132310
2
Frame 970   E = -7.91431686 Ha
LI -0.000000  0.012844 -0.133611
H   0.000000 -0.089412  2.130137
2
Frame 971   E = -7.91458369 Ha
LI -0.000000  0.012803 -0.133142
H   0.000000 -0.089127  2.126875
2
Frame 972   E = -7.91493919 Ha
LI -0.000000  0.012761 -0.132517
H   0.000000 -0.088834  2.122523
2
Frame 973   E = -7.91538294 Ha
LI -0.000000  0.012718 -0.131736
H   0.000000 -0.088534  2.117084
2
Frame 974   E = -7.91591437 Ha
LI -0.000000  0.012673 -0.130799
H   0.000000 -0.088227  2.110559
2
Frame 975   E = -7.91653274 Ha
LI -0.000000  0.012628 -0.129706
H   0.000000 -0.087911  2.102950
2
Frame 976   E = -7.91723713 Ha
LI -0.000000  0.012582 -0.128457
H   0.000000 -0.087587  2.094259
2
Frame 977   E = -7.91802639 Ha
LI -0.000000  0.012533 -0.127054
H   0.000000 -0.087252  2.084490
2
Frame 978   E = -7.91889911 Ha
LI -0.000000  0.012484 -0.125496
H   0.000000 -0.086907  2.073646
2
Frame 979   E = -7.91985356 Ha
LI -0.000000  0.012432 -0.123785
H   0.000000 -0.086549  2.061733
2
Frame 980   E = -7.92088764 Ha
LI -0.000000  0.012379 -0.121921
H   0.000000 -0.086178  2.048754
2
Frame 981   E = -7.92199884 Ha
LI -0.000000  0.012324 -0.119904
H   0.000000 -0.085792  2.034718
2
Frame 982   E = -7.92318413 Ha
LI -0.000000  0.012266 -0.117737
H   0.000000 -0.085390  2.019630
2
Frame 983   E = -7.92443988 Ha
LI -0.000000  0.012206 -0.115420
H   0.000000 -0.084970  2.003500
2
Frame 984   E = -7.92576179 Ha
LI -0.000000  0.012143 -0.112955
H   0.000000 -0.084531  1.986339
2
Frame 985   E = -7.92714473 Ha
LI -0.000000  0.012076 -0.110343
H   0.000000 -0.084071  1.968157
2
Frame 986   E = -7.92858266 Ha
LI -0.000000  0.012007 -0.107587
H   0.000000 -0.083587  1.948969
2
Frame 987   E = -7.93006843 Ha
LI -0.000000  0.011934 -0.104688
H   0.000000 -0.083079  1.928791
2
Frame 988   E = -7.93159369 Ha
LI -0.000000  0.011857 -0.101650
H   0.000000 -0.082544  1.907642
2
Frame 989   E = -7.93314864 Ha
LI -0.000000  0.011776 -0.098476
H   0.000000 -0.081980  1.885544
2
Frame 990   E = -7.93472188 Ha
LI -0.000000  0.011691 -0.095169
H   0.000000 -0.081385  1.862521
2
Frame 991   E = -7.93630017 Ha
LI -0.000000  0.011601 -0.091733
H   0.000000 -0.080758  1.838603
2
Frame 992   E = -7.93786823 Ha
LI -0.000000  0.011506 -0.088174
H   0.000000 -0.080097  1.813824
2
Frame 993   E = -7.93940850 Ha
LI -0.000000  0.011406 -0.084496
H   0.000000 -0.079400  1.788222
2
Frame 994   E = -7.94090094 Ha
LI -0.000000  0.011300 -0.080707
H   0.000000 -0.078665  1.761842
2
Frame 995   E = -7.94232282 Ha
LI -0.000000  0.011189 -0.076813
H   0.000000 -0.077891  1.734735
2
Frame 996   E = -7.94364854 Ha
LI -0.000000  0.011072 -0.072823
H   0.000000 -0.077078  1.706960
2
Frame 997   E = -7.94484961 Ha
LI -0.000000  0.010949 -0.068747
H   0.000000 -0.076224  1.678584
2
Frame 998   E = -7.94589460 Ha
LI -0.000000  0.010821 -0.064596
H   0.000000 -0.075329  1.649684
2
Frame 999   E = -7.94674943 Ha
LI -0.000000  0.010686 -0.060382
H   0.000000 -0.074393  1.620349
2
Frame 1000   E = -7.94737769 Ha
LI -0.000000  0.010546 -0.056119
H   0.000000 -0.073417  1.590677
2
Frame 1001   E = -7.94774144 Ha
LI -0.000000  0.010400 -0.051825
H   0.000000 -0.072402  1.560782
2
Frame 1002   E = -7.94780230 Ha
LI -0.000000  0.010249 -0.047517
H   0.000000 -0.071351  1.530791
2
Frame 1003   E = -7.94752305 Ha
LI -0.000000  0.010094 -0.043216
H   0.000000 -0.070267  1.500847
2
Frame 1004   E = -7.94686975 Ha
LI -0.000000  0.009934 -0.038944
H   0.000000 -0.069154  1.471110
2
Frame 1005   E = -7.94581458 Ha
LI -0.000000  0.009770 -0.034727
H   0.000000 -0.068016  1.441756
2
Frame 1006   E = -7.94433922 Ha
LI -0.000000  0.009604 -0.030594
H   0.000000 -0.066861  1.412982
2
Frame 1007   E = -7.94243880 Ha
LI -0.000000  0.009437 -0.026575
H   0.000000 -0.065695  1.385001
2
Frame 1008   E = -7.94012625 Ha
LI -0.000000  0.009269 -0.022702
H   0.000000 -0.064528  1.358042
2
Frame 1009   E = -7.93743658 Ha
LI -0.000000  0.009103 -0.019012
H   0.000000 -0.063368  1.332351
2
Frame 1010   E = -7.93443064 Ha
LI -0.000000  0.008939 -0.015540
H   0.000000 -0.062227  1.308185
2
Frame 1011   E = -7.93119747 Ha
LI -0.000000  0.008779 -0.012327
H   0.000000 -0.061115  1.285811
2
Frame 1012   E = -7.92785449 Ha
LI -0.000000  0.008625 -0.009409
H   0.000000 -0.060045  1.265498
2
Frame 1013   E = -7.92454446 Ha
LI -0.000000  0.008479 -0.006825
H   0.000000 -0.059028  1.247510
2
Frame 1014   E = -7.92142876 Ha
LI -0.000000  0.008342 -0.004611
H   0.000000 -0.058076  1.232098
2
Frame 1015   E = -7.91867651 Ha
LI -0.000000  0.008216 -0.002800
H   0.000000 -0.057197  1.219492
2
Frame 1016   E = -7.91645059 Ha
LI -0.000000  0.008102 -0.001421
H   0.000000 -0.056401  1.209890
2
Frame 1017   E = -7.91489172 Ha
LI -0.000000  0.008000 -0.000496
H   0.000000 -0.055695  1.203450
2
Frame 1018   E = -7.91410321 Ha
LI -0.000000  0.007912 -0.000040
H   0.000000 -0.055081  1.200282
2
Frame 1019   E = -7.91413887 Ha
LI -0.000000  0.007838 -0.000063
H   0.000000 -0.054561  1.200439
2
Frame 1020   E = -7.91499646 Ha
LI -0.000000  0.007776 -0.000563
H   0.000000 -0.054134  1.203920
2
Frame 1021   E = -7.91661791 Ha
LI -0.000000  0.007727 -0.001532
H   0.000000 -0.053794  1.210666
2
Frame 1022   E = -7.91889643 Ha
LI -0.000000  0.007690 -0.002954
H   0.000000 -0.053535  1.220564
2
Frame 1023   E = -7.92168893 Ha
LI -0.000000  0.007663 -0.004805
H   0.000000 -0.053347  1.233451
2
Frame 1024   E = -7.92483140 Ha
LI -0.000000  0.007645 -0.007057
H   0.000000 -0.053221  1.249128
2
Frame 1025   E = -7.92815473 Ha
LI -0.000000  0.007634 -0.009676
H   0.000000 -0.053144  1.267362
2
Frame 1026   E = -7.93149858 Ha
LI -0.000000  0.007628 -0.012627
H   0.000000 -0.053104  1.287901
2
Frame 1027   E = -7.93472185 Ha
LI -0.000000  0.007626 -0.015870
H   0.000000 -0.053091  1.310478
2
Frame 1028   E = -7.93770920 Ha
LI -0.000000  0.007627 -0.019367
H   0.000000 -0.053092  1.334826
2
Frame 1029   E = -7.94037373 Ha
LI -0.000000  0.007627 -0.023081
H   0.000000 -0.053098  1.360678
2
Frame 1030   E = -7.94265668 Ha
LI -0.000000  0.007627 -0.026974
H   0.000000 -0.053098  1.387777
2
Frame 1031   E = -7.94452487 Ha
LI -0.000000  0.007626 -0.031010
H   0.000000 -0.053086  1.415879
2
Frame 1032   E = -7.94596691 Ha
LI -0.000000  0.007621 -0.035158
H   0.000000 -0.053054  1.444754
2
Frame 1033   E = -7.94698886 Ha
LI -0.000000  0.007613 -0.039387
H   0.000000 -0.052997  1.474190
2
Frame 1034   E = -7.94760998 Ha
LI -0.000000  0.007601 -0.043668
H   0.000000 -0.052912  1.503994
2
Frame 1035   E = -7.94785873 Ha
LI -0.000000  0.007584 -0.047976
H   0.000000 -0.052794  1.533990
2
Frame 1036   E = -7.94776945 Ha
LI -0.000000  0.007562 -0.052290
H   0.000000 -0.052642  1.564017
2
Frame 1037   E = -7.94737960 Ha
LI -0.000000  0.007535 -0.056588
H   0.000000 -0.052455  1.593936
2
Frame 1038   E = -7.94672767 Ha
LI -0.000000  0.007503 -0.060851
H   0.000000 -0.052233  1.623618
2
Frame 1039   E = -7.94585159 Ha
LI -0.000000  0.007466 -0.065065
H   0.000000 -0.051977  1.652952
2
Frame 1040   E = -7.94478769 Ha
LI -0.000000  0.007425 -0.069215
H   0.000000 -0.051687  1.681840
2
Frame 1041   E = -7.94356997 Ha
LI -0.000000  0.007378 -0.073288
H   0.000000 -0.051365  1.710194
2
Frame 1042   E = -7.94222969 Ha
LI -0.000000  0.007328 -0.077273
H   0.000000 -0.051013  1.737937
2
Frame 1043   E = -7.94079522 Ha
LI -0.000000  0.007273 -0.081161
H   0.000000 -0.050632  1.765003
2
Frame 1044   E = -7.93929199 Ha
LI -0.000000  0.007215 -0.084943
H   0.000000 -0.050227  1.791334
2
Frame 1045   E = -7.93774261 Ha
LI -0.000000  0.007153 -0.088613
H   0.000000 -0.049798  1.816879
2
Frame 1046   E = -7.93616699 Ha
LI -0.000000  0.007089 -0.092163
H   0.000000 -0.049350  1.841594
2
Frame 1047   E = -7.93458256 Ha
LI -0.000000  0.007022 -0.095588
H   0.000000 -0.048884  1.865439
2
Frame 1048   E = -7.93300452 Ha
LI -0.000000  0.006953 -0.098884
H   0.000000 -0.048403  1.888382
2
Frame 1049   E = -7.93144599 Ha
LI -0.000000  0.006882 -0.102046
H   0.000000 -0.047911  1.910394
2
Frame 1050   E = -7.92991833 Ha
LI -0.000000  0.006810 -0.105070
H   0.000000 -0.047410  1.931450
2
Frame 1051   E = -7.92843125 Ha
LI -0.000000  0.006737 -0.107954
H   0.000000 -0.046902  1.951528
2
Frame 1052   E = -7.92699308 Ha
LI -0.000000  0.006664 -0.110695
H   0.000000 -0.046391  1.970609
2
Frame 1053   E = -7.92561091 Ha
LI -0.000000  0.006590 -0.113291
H   0.000000 -0.045879  1.988678
2
Frame 1054   E = -7.92429076 Ha
LI -0.000000  0.006517 -0.115739
H   0.000000 -0.045368  2.005721
2
Frame 1055   E = -7.92303774 Ha
LI -0.000000  0.006444 -0.118038
H   0.000000 -0.044862  2.021725
2
Frame 1056   E = -7.92185613 Ha
LI -0.000000  0.006372 -0.120186
H   0.000000 -0.044361  2.036682
2
Frame 1057   E = -7.92074956 Ha
LI -0.000000  0.006302 -0.122183
H   0.000000 -0.043868  2.050581
2
Frame 1058   E = -7.91972104 Ha
LI -0.000000  0.006232 -0.124027
H   0.000000 -0.043386  2.063416
2
Frame 1059   E = -7.91877311 Ha
LI -0.000000  0.006165 -0.125717
H   0.000000 -0.042916  2.075180
2
Frame 1060   E = -7.91790786 Ha
LI -0.000000  0.006099 -0.127252
H   0.000000 -0.042459  2.085868
2
Frame 1061   E = -7.91712702 Ha
LI -0.000000  0.006036 -0.128632
H   0.000000 -0.042017  2.095475
2
Frame 1062   E = -7.91643202 Ha
LI -0.000000  0.005975 -0.129856
H   0.000000 -0.041592  2.103998
2
Frame 1063   E = -7.91582401 Ha
LI -0.000000  0.005916 -0.130924
H   0.000000 -0.041186  2.111434
2
Frame 1064   E = -7.91530394 Ha
LI -0.000000  0.005860 -0.131836
H   0.000000 -0.040798  2.117779
2
Frame 1065   E = -7.91487255 Ha
LI -0.000000  0.005808 -0.132590
H   0.000000 -0.040430  2.123032
2
Frame 1066   E = -7.91453042 Ha
LI -0.000000  0.005758 -0.133188
H   0.000000 -0.040083  2.127192
2
Frame 1067   E = -7.91427800 Ha
LI -0.000000  0.005711 -0.133628
H   0.000000 -0.039758  2.130256
2
Frame 1068   E = -7.91411559 Ha
LI -0.000000  0.005668 -0.133911
H   0.000000 -0.039455  2.132224
2
Frame 1069   E = -7.91404341 Ha
LI -0.000000  0.005627 -0.134036
H   0.000000 -0.039175  2.133095
2
Frame 1070   E = -7.91406154 Ha
LI -0.000000  0.005590 -0.134004
H   0.000000 -0.038918  2.132869
2
Frame 1071   E = -7.91416997 Ha
LI -0.000000  0.005557 -0.133814
H   0.000000 -0.038683  2.131547
2
Frame 1072   E = -7.91436859 Ha
LI -0.000000  0.005526 -0.133466
H   0.000000 -0.038472  2.129128
2
Frame 1073   E = -7.91465717 Ha
LI -0.000000  0.005499 -0.132961
H   0.000000 -0.038283  2.125612
2
Frame 1074   E = -7.91503538 Ha
LI -0.000000  0.005475 -0.132299
H   0.000000 -0.038117  2.121002
2
Frame 1075   E = -7.91550274 Ha
LI -0.000000  0.005455 -0.131480
H   0.000000 -0.037973  2.115299
2
Frame 1076   E = -7.91605863 Ha
LI -0.000000  0.005437 -0.130503
H   0.000000 -0.037850  2.108504
2
Frame 1077   E = -7.91670223 Ha
LI -0.000000  0.005422 -0.129371
H   0.000000 -0.037748  2.100619
2
Frame 1078   E = -7.91743256 Ha
LI -0.000000  0.005411 -0.128082
H   0.000000 -0.037666  2.091647
2
Frame 1079   E = -7.91824836 Ha
LI -0.000000  0.005401 -0.126638
H   0.000000 -0.037602  2.081592
2
Frame 1080   E = -7.91914811 Ha
LI -0.000000  0.005395 -0.125038
H   0.000000 -0.037557  2.070457
2
Frame 1081   E = -7.92012996 Ha
LI -0.000000  0.005391 -0.123284
H   0.000000 -0.037527  2.058248
2
Frame 1082   E = -7.92119166 Ha
LI -0.000000  0.005388 -0.121377
H   0.000000 -0.037512  2.044970
2
Frame 1083   E = -7.92233049 Ha
LI -0.000000  0.005388 -0.119317
H   0.000000 -0.037510  2.030630
2
Frame 1084   E = -7.92354323 Ha
LI -0.000000  0.005390 -0.117106
H   0.000000 -0.037520  2.015235
2
Frame 1085   E = -7.92482599 Ha
LI -0.000000  0.005392 -0.114744
H   0.000000 -0.037540  1.998794
2
Frame 1086   E = -7.92617416 Ha
LI -0.000000  0.005396 -0.112234
H   0.000000 -0.037566  1.981320
2
Frame 1087   E = -7.92758229 Ha
LI -0.000000  0.005401 -0.109577
H   0.000000 -0.037599  1.962823
2
Frame 1088   E = -7.92904394 Ha
LI -0.000000  0.005406 -0.106775
H   0.000000 -0.037634  1.943320
2
Frame 1089   E = -7.93055151 Ha
LI -0.000000  0.005411 -0.103831
H   0.000000 -0.037670  1.922826
2
Frame 1090   E = -7.93209610 Ha
LI -0.000000  0.005416 -0.100748
H   0.000000 -0.037705  1.901362
2
Frame 1091   E = -7.93366733 Ha
LI -0.000000  0.005421 -0.097529
H   0.000000 -0.037735  1.878950
2
Frame 1092   E = -7.93525311 Ha
LI -0.000000  0.005424 -0.094177
H   0.000000 -0.037759  1.855618
2
Frame 1093   E = -7.93683943 Ha
LI -0.000000  0.005426 -0.090698
H   0.000000 -0.037773  1.831395
2
Frame 1094   E = -7.93841014 Ha
LI -0.000000  0.005426 -0.087095
H   0.000000 -0.037774  1.806317
2
Frame 1095   E = -7.93994674 Ha
LI -0.000000  0.005424 -0.083376
H   0.000000 -0.037761  1.780426
2
Frame 1096   E = -7.94142812 Ha
LI -0.000000  0.005420 -0.079547
H   0.000000 -0.037729  1.753767
2
Frame 1097   E = -7.94283041 Ha
LI -0.000000  0.005412 -0.075615
H   0.000000 -0.037678  1.726395
2
Frame 1098   E = -7.94412684 Ha
LI -0.000000  0.005402 -0.071589
H   0.000000 -0.037603  1.698372
2
Frame 1099   E = -7.94528766 Ha
LI -0.000000  0.005387 -0.067481
H   0.000000 -0.037502  1.669768
2
Frame 1100   E = -7.94628027 Ha
LI -0.000000  0.005369 -0.063300
H   0.000000 -0.037374  1.640665
2
Frame 1101   E = -7.94706943 Ha
LI -0.000000  0.005346 -0.059061
H   0.000000 -0.037216  1.611154
2
Frame 1102   E = -7.94761783 Ha
LI -0.000000  0.005319 -0.054778
H   0.000000 -0.037026  1.581341
2
Frame 1103   E = -7.94788692 Ha
LI -0.000000  0.005287 -0.050469
H   0.000000 -0.036803  1.551342
2
Frame 1104   E = -7.94783817 Ha
LI -0.000000  0.005250 -0.046153
H   0.000000 -0.036547  1.521293
2
Frame 1105   E = -7.94743492 Ha
LI -0.000000  0.005208 -0.041850
H   0.000000 -0.036256  1.491341
2
Frame 1106   E = -7.94664474 Ha
LI -0.000000  0.005161 -0.037586
H   0.000000 -0.035931  1.461654
2
Frame 1107   E = -7.94544245 Ha
LI -0.000000  0.005110 -0.033386
H   0.000000 -0.035572  1.432416
2
Frame 1108   E = -7.94381378 Ha
LI -0.000000  0.005054 -0.029279
H   0.000000 -0.035183  1.403829
2
Frame 1109   E = -7.94175956 Ha
LI -0.000000  0.004994 -0.025298
H   0.000000 -0.034764  1.376114
2
Frame 1110   E = -7.93930008 Ha
LI -0.000000  0.004930 -0.021476
H   0.000000 -0.034319  1.349508
2
Frame 1111   E = -7.93647935 Ha
LI -0.000000  0.004863 -0.017850
H   0.000000 -0.033851  1.324262
2
Frame 1112   E = -7.93336845 Ha
LI -0.000000  0.004793 -0.014457
H   0.000000 -0.033366  1.300640
2
Frame 1113   E = -7.93006729 Ha
LI -0.000000  0.004721 -0.011335
H   0.000000 -0.032867  1.278909
2
Frame 1114   E = -7.92670373 Ha
LI -0.000000  0.004649 -0.008524
H   0.000000 -0.032361  1.259339
2
Frame 1115   E = -7.92342924 Ha
LI -0.000000  0.004575 -0.006061
H   0.000000 -0.031852  1.242194
2
Frame 1116   E = -7.92041058 Ha
LI -0.000000  0.004503 -0.003982
H   0.000000 -0.031346  1.227718
2
Frame 1117   E = -7.91781762 Ha
LI -0.000000  0.004431 -0.002317
H   0.000000 -0.030846  1.216132
2
Frame 1118   E = -7.91580828 Ha
LI -0.000000  0.004361 -0.001095
H   0.000000 -0.030356  1.207623
2
Frame 1119   E = -7.91451237 Ha
LI -0.000000  0.004292 -0.000335
H   0.000000 -0.029879  1.202332
2
Frame 1120   E = -7.91401707 Ha
LI -0.000000  0.004225 -0.000050
H   0.000000 -0.029414  1.200348
2
Frame 1121   E = -7.91435652 Ha
LI -0.000000  0.004160 -0.000245
H   0.000000 -0.028963  1.201708
2
Frame 1122   E = -7.91550756 Ha
LI -0.000000  0.004097 -0.000918
H   0.000000 -0.028522  1.206387
2
Frame 1123   E = -7.91739263 Ha
LI -0.000000  0.004035 -0.002055
H   0.000000 -0.028088  1.214306
2
Frame 1124   E = -7.91988908 Ha
LI -0.000000  0.003973 -0.003639
H   0.000000 -0.027657  1.225332
2
Frame 1125   E = -7.92284315 Ha
LI -0.000000  0.003910 -0.005643
H   0.000000 -0.027223  1.239287
2
Frame 1126   E = -7.92608595 Ha
LI -0.000000  0.003847 -0.008038
H   0.000000 -0.026781  1.255957
2
Frame 1127   E = -7.92944897 Ha
LI -0.000000  0.003782 -0.010788
H   0.000000 -0.026326  1.275100
2
Frame 1128   E = -7.93277690 Ha
LI -0.000000  0.003713 -0.013855
H   0.000000 -0.025851  1.296455
2
Frame 1129   E = -7.93593673 Ha
LI -0.000000  0.003642 -0.017202
H   0.000000 -0.025351  1.319755
2
Frame 1130   E = -7.93882290 Ha
LI -0.000000  0.003566 -0.020790
H   0.000000 -0.024822  1.344728
2
Frame 1131   E = -7.94135871 Ha
LI -0.000000  0.003485 -0.024579
H   0.000000 -0.024260  1.371110
2
Frame 1132   E = -7.94349507 Ha
LI -0.000000  0.003399 -0.028535
H   0.000000 -0.023663  1.398648
2
Frame 1133   E = -7.94520737 Ha
LI -0.000000  0.003308 -0.032622
H   0.000000 -0.023029  1.427101
2
Frame 1134   E = -7.94649135 Ha
LI -0.000000  0.003212 -0.036809
H   0.000000 -0.022358  1.456246
2
Frame 1135   E = -7.94735870 Ha
LI -0.000000  0.003110 -0.041065
H   0.000000 -0.021648  1.485875
2
Frame 1136   E = -7.94783281 Ha
LI -0.000000  0.003002 -0.045364
H   0.000000 -0.020901  1.515801
2
Frame 1137   E = -7.94794501 Ha
LI -0.000000  0.002890 -0.049681
H   0.000000 -0.020119  1.545854
2
Frame 1138   E = -7.94773143 Ha
LI -0.000000  0.002773 -0.053994
H   0.000000 -0.019303  1.575881
2
Frame 1139   E = -7.94723044 Ha
LI -0.000000  0.002651 -0.058284
H   0.000000 -0.018456  1.605745
2
Frame 1140   E = -7.94648078 Ha
LI -0.000000  0.002525 -0.062533
H   0.000000 -0.017581  1.635325
2
Frame 1141   E = -7.94552016 Ha
LI -0.000000  0.002396 -0.066726
H   0.000000 -0.016681  1.664514
2
Frame 1142   E = -7.94438436 Ha
LI -0.000000  0.002264 -0.070849
H   0.000000 -0.015760  1.693218
2
Frame 1143   E = -7.94310658 Ha
LI -0.000000  0.002129 -0.074891
H   0.000000 -0.014822  1.721352
2
Frame 1144   E = -7.94171723 Ha
LI -0.000000  0.001992 -0.078840
H   0.000000 -0.013869  1.748846
2
Frame 1145   E = -7.94024372 Ha
LI -0.000000  0.001854 -0.082688
H   0.000000 -0.012907  1.775633
2
Frame 1146   E = -7.93871055 Ha
LI -0.000000  0.001715 -0.086427
H   0.000000 -0.011939  1.801661
2
Frame 1147   E = -7.93713941 Ha
LI -0.000000  0.001575 -0.090049
H   0.000000 -0.010968  1.826879
2
Frame 1148   E = -7.93554938 Ha
LI -0.000000  0.001436 -0.093549
H   0.000000 -0.009998  1.851246
2
Frame 1149   E = -7.93395708 Ha
LI -0.000000  0.001298 -0.096922
H   0.000000 -0.009034  1.874726
2
Frame 1150   E = -7.93237700 Ha
LI -0.000000  0.001160 -0.100163
H   0.000000 -0.008078  1.897287
2
Frame 1151   E = -7.93082162 Ha
LI -0.000000  0.001025 -0.103268
H   0.000000 -0.007134  1.918901
2
Frame 1152   E = -7.92930170 Ha
LI -0.000000  0.000891 -0.106233
H   0.000000 -0.006205  1.939545
2
Frame 1153   E = -7.92782647 Ha
LI -0.000000  0.000761 -0.109056
H   0.000000 -0.005295  1.959198
2
Frame 1154   E = -7.92640381 Ha
LI -0.000000  0.000633 -0.111735
H   0.000000 -0.004406  1.977844
2
Frame 1155   E = -7.92504040 Ha
LI -0.000000  0.000509 -0.114266
H   0.000000 -0.003542  1.995466
2
Frame 1156   E = -7.92374193 Ha
LI -0.000000  0.000389 -0.116648
H   0.000000 -0.002705  2.012052
2
Frame 1157   E = -7.92251321 Ha
LI -0.000000  0.000273 -0.118880
H   0.000000 -0.001898  2.027590
2
Frame 1158   E = -7.92135829 Ha
LI -0.000000  0.000161 -0.120961
H   0.000000 -0.001122  2.042071
2
Frame 1159   E = -7.92028055 Ha
LI -0.000000  0.000055 -0.122888
H   0.000000 -0.000381  2.055487
2
Frame 1160   E = -7.91928283 Ha
LI -0.000000 -0.000046 -0.124661
H   0.000000  0.000323  2.067831
2
Frame 1161   E = -7.91836750 Ha
LI -0.000000 -0.000142 -0.126279
H   0.000000  0.000990  2.079097
2
Frame 1162   E = -7.91753652 Ha
LI -0.000000 -0.000232 -0.127742
H   0.000000  0.001616  2.089280
2
Frame 1163   E = -7.91679149 Ha
LI -0.000000 -0.000316 -0.129049
H   0.000000  0.002201  2.098375
2
Frame 1164   E = -7.91613375 Ha
LI -0.000000 -0.000394 -0.130198
H   0.000000  0.002743  2.106380
2
Frame 1165   E = -7.91556436 Ha
LI -0.000000 -0.000466 -0.131191
H   0.000000  0.003241  2.113291
2
Frame 1166   E = -7.91508419 Ha
LI -0.000000 -0.000531 -0.132027
H   0.000000  0.003693  2.119107
2
Frame 1167   E = -7.91469391 Ha
LI -0.000000 -0.000589 -0.132704
H   0.000000  0.004099  2.123824
2
Frame 1168   E = -7.91439405 Ha
LI -0.000000 -0.000640 -0.133224
H   0.000000  0.004458  2.127442
2
Frame 1169   E = -7.91418499 Ha
LI -0.000000 -0.000685 -0.133586
H   0.000000  0.004770  2.129959
2
Frame 1170   E = -7.91406699 Ha
LI -0.000000 -0.000723 -0.133789
H   0.000000  0.005033  2.131376
2
Frame 1171   E = -7.91404020 Ha
LI -0.000000 -0.000754 -0.133834
H   0.000000  0.005248  2.131690
2
Frame 1172   E = -7.91410466 Ha
LI -0.000000 -0.000778 -0.133721
H   0.000000  0.005414  2.130903
2
Frame 1173   E = -7.91426031 Ha
LI -0.000000 -0.000795 -0.133450
H   0.000000  0.005532  2.129014
2
Frame 1174   E = -7.91450696 Ha
LI -0.000000 -0.000805 -0.133020
H   0.000000  0.005601  2.126024
2
Frame 1175   E = -7.91484432 Ha
LI -0.000000 -0.000808 -0.132433
H   0.000000  0.005622  2.121934
2
Frame 1176   E = -7.91527198 Ha
LI -0.000000 -0.000804 -0.131687
H   0.000000  0.005595  2.116745
2
Frame 1177   E = -7.91578935 Ha
LI -0.000000 -0.000793 -0.130784
H   0.000000  0.005521  2.110459
2
Frame 1178   E = -7.91639571 Ha
LI -0.000000 -0.000776 -0.129724
H   0.000000  0.005400  2.103077
2
Frame 1179   E = -7.91709012 Ha
LI -0.000000 -0.000752 -0.128507
H   0.000000  0.005235  2.094603
2
Frame 1180   E = -7.91787144 Ha
LI -0.000000 -0.000722 -0.127133
H   0.000000  0.005025  2.085039
2
Frame 1181   E = -7.91873823 Ha
LI -0.000000 -0.000685 -0.125603
H   0.000000  0.004772  2.074389
2
Frame 1182   E = -7.91968876 Ha
LI -0.000000 -0.000643 -0.123918
H   0.000000  0.004477  2.062657
2
Frame 1183   E = -7.92072092 Ha
LI -0.000000 -0.000595 -0.122078
H   0.000000  0.004142  2.049849
2
Frame 1184   E = -7.92183217 Ha
LI -0.000000 -0.000541 -0.120084
H   0.000000  0.003769  2.035972
2
Frame 1185   E = -7.92301946 Ha
LI -0.000000 -0.000483 -0.117938
H   0.000000  0.003359  2.021032
2
Frame 1186   E = -7.92427914 Ha
LI -0.000000 -0.000419 -0.115641
H   0.000000  0.002915  2.005038
2
Frame 1187   E = -7.92560688 Ha
LI -0.000000 -0.000350 -0.113194
H   0.000000  0.002439  1.988000
2
Frame 1188   E = -7.92699750 Ha
LI -0.000000 -0.000278 -0.110598
H   0.000000  0.001933  1.969931
2
Frame 1189   E = -7.92844493 Ha
LI -0.000000 -0.000201 -0.107856
H   0.000000  0.001400  1.950844
2
Frame 1190   E = -7.92994198 Ha
LI -0.000000 -0.000121 -0.104970
H   0.000000  0.000843  1.930755
2
Frame 1191   E = -7.93148022 Ha
LI -0.000000 -0.000038 -0.101943
H   0.000000  0.000264  1.909683
2
Frame 1192   E = -7.93304979 Ha
LI -0.000000  0.000048 -0.098778
H   0.000000 -0.000333  1.887649
2
Frame 1193   E = -7.93463920 Ha
LI -0.000000  0.000136 -0.095479
H   0.000000 -0.000945  1.864680
2
Frame 1194   E = -7.93623512 Ha
LI -0.000000  0.000225 -0.092049
H   0.000000 -0.001569  1.840803
2
Frame 1195   E = -7.93782215 Ha
LI -0.000000  0.000316 -0.088494
H   0.000000 -0.002202  1.816053
2
Frame 1196   E = -7.93938260 Ha
LI -0.000000  0.000408 -0.084819
H   0.000000 -0.002839  1.790468
2
Frame 1197   E = -7.94089624 Ha
LI -0.000000  0.000499 -0.081030
H   0.000000 -0.003476  1.764093
2
Frame 1198   E = -7.94234013 Ha
LI -0.000000  0.000590 -0.077135
H   0.000000 -0.004111  1.736979
2
Frame 1199   E = -7.94368847 Ha
LI -0.000000  0.000681 -0.073143
H   0.000000 -0.004738  1.709186
2
Frame 1200   E = -7.94491243 Ha
LI -0.000000  0.000769 -0.069062
H   0.000000 -0.005355  1.680780
2
Frame 1201   E = -7.94598029 Ha
LI -0.000000  0.000856 -0.064905
H   0.000000 -0.005956  1.651838
2
Frame 1202   E = -7.94685754 Ha
LI -0.000000  0.000939 -0.060683
H   0.000000 -0.006537  1.622450
2
Frame 1203   E = -7.94750732 Ha
LI -0.000000  0.001019 -0.056412
H   0.000000 -0.007096  1.592714
2
Frame 1204   E = -7.94789118 Ha
LI -0.000000  0.001096 -0.052107
H   0.000000 -0.007627  1.562744
2
Frame 1205   E = -7.94797016 Ha
LI -0.000000  0.001167 -0.047787
H   0.000000 -0.008127  1.532668
2
Frame 1206   E = -7.94770638 Ha
LI -0.000000  0.001234 -0.043472
H   0.000000 -0.008593  1.502629
2
Frame 1207   E = -7.94706527 Ha
LI -0.000000  0.001296 -0.039185
H   0.000000 -0.009020  1.472789
2
Frame 1208   E = -7.94601833 Ha
LI -0.000000  0.001351 -0.034953
H   0.000000 -0.009406  1.443326
2
Frame 1209   E = -7.94454661 Ha
LI -0.000000  0.001400 -0.030803
H   0.000000 -0.009749  1.414435
2
Frame 1210   E = -7.94264472 Ha
LI -0.000000  0.001443 -0.026766
H   0.000000 -0.010045  1.386333
2
Frame 1211   E = -7.94032525 Ha
LI -0.000000  0.001479 -0.022876
H   0.000000 -0.010294  1.359249
2
Frame 1212   E = -7.93762309 Ha
LI -0.000000  0.001507 -0.019167
H   0.000000 -0.010493  1.333432
2
Frame 1213   E = -7.93459934 Ha
LI -0.000000  0.001529 -0.015678
H   0.000000 -0.010643  1.309142
2
Frame 1214   E = -7.93134368 Ha
LI -0.000000  0.001543 -0.012447
H   0.000000 -0.010742  1.286647
2
Frame 1215   E = -7.92797462 Ha
LI -0.000000  0.001550 -0.009512
H   0.000000 -0.010791  1.266218
2
Frame 1216   E = -7.92463652 Ha
LI -0.000000  0.001550 -0.006913
H   0.000000 -0.010790  1.248122
2
Frame 1217   E = -7.92149266 Ha
LI -0.000000  0.001543 -0.004685
H   0.000000 -0.010739  1.232614
2
Frame 1218   E = -7.91871440 Ha
LI -0.000000  0.001528 -0.002862
H   0.000000 -0.010639  1.219924
2
Frame 1219   E = -7.91646680 Ha
LI -0.000000  0.001507 -0.001473
H   0.000000 -0.010491  1.210254
2
Frame 1220   E = -7.91489256 Ha
LI -0.000000  0.001479 -0.000540
H   0.000000 -0.010294  1.203762
2
Frame 1221   E = -7.91409644 Ha
LI -0.000000  0.001443 -0.000080
H   0.000000 -0.010048  1.200559
2
Frame 1222   E = -7.91413295 Ha
LI -0.000000  0.001401 -0.000101
H   0.000000 -0.009753  1.200700
2
Frame 1223   E = -7.91499967 Ha
LI -0.000000  0.001351 -0.000601
H   0.000000 -0.009407  1.204183
2
Frame 1224   E = -7.91663758 Ha
LI -0.000000  0.001294 -0.001573
H   0.000000 -0.009011  1.210947
2
Frame 1225   E = -7.91893821 Ha
LI -0.000000  0.001230 -0.002999
H   0.000000 -0.008561  1.220879
2
Frame 1226   E = -7.92175638 Ha
LI -0.000000  0.001157 -0.004857
H   0.000000 -0.008057  1.233814
2
Frame 1227   E = -7.92492583 Ha
LI -0.000000  0.001077 -0.007118
H   0.000000 -0.007496  1.249551
2
Frame 1228   E = -7.92827533 Ha
LI -0.000000  0.000988 -0.009747
H   0.000000 -0.006878  1.267853
2
Frame 1229   E = -7.93164272 Ha
LI -0.000000  0.000891 -0.012708
H   0.000000 -0.006202  1.288467
2
Frame 1230   E = -7.93488554 Ha
LI -0.000000  0.000785 -0.015963
H   0.000000 -0.005468  1.311123
2
Frame 1231   E = -7.93788752 Ha
LI -0.000000  0.000672 -0.019472
H   0.000000 -0.004675  1.335552
2
Frame 1232   E = -7.94056134 Ha
LI -0.000000  0.000550 -0.023197
H   0.000000 -0.003825  1.361485
2
Frame 1233   E = -7.94284817 Ha
LI -0.000000  0.000419 -0.027101
H   0.000000 -0.002920  1.388662
2
Frame 1234   E = -7.94471508 Ha
LI -0.000000  0.000282 -0.031148
H   0.000000 -0.001961  1.416839
2
Frame 1235   E = -7.94615114 Ha
LI -0.000000  0.000137 -0.035306
H   0.000000 -0.000951  1.445783
2
Frame 1236   E = -7.94716302 Ha
LI -0.000000 -0.000015 -0.039543
H   0.000000  0.000105  1.475282
2
Frame 1237   E = -7.94777063 Ha
LI -0.000000 -0.000173 -0.043832
H   0.000000  0.001205  1.505141
2
Frame 1238   E = -7.94800312 Ha
LI -0.000000 -0.000337 -0.048148
H   0.000000  0.002344  1.535182
2
Frame 1239   E = -7.94789547 Ha
LI -0.000000 -0.000505 -0.052467
H   0.000000  0.003517  1.565248
2
Frame 1240   E = -7.94748577 Ha
LI -0.000000 -0.000678 -0.056768
H   0.000000  0.004720  1.595194
2
Frame 1241   E = -7.94681304 Ha
LI -0.000000 -0.000854 -0.061035
H   0.000000  0.005948  1.624895
2
Frame 1242   E = -7.94591569 Ha
LI -0.000000 -0.001034 -0.065250
H   0.000000  0.007195  1.654238
2
Frame 1243   E = -7.94483044 Ha
LI -0.000000 -0.001215 -0.069399
H   0.000000  0.008457  1.683124
2
Frame 1244   E = -7.94359165 Ha
LI -0.000000 -0.001398 -0.073470
H   0.000000  0.009729  1.711466
2
Frame 1245   E = -7.94223086 Ha
LI -0.000000 -0.001581 -0.077453
H   0.000000  0.011006  1.739188
2
Frame 1246   E = -7.94077667 Ha
LI -0.000000 -0.001764 -0.081336
H   0.000000  0.012282  1.766223
2
Frame 1247   E = -7.93925472 Ha
LI -0.000000 -0.001947 -0.085112
H   0.000000  0.013554  1.792512
2
Frame 1248   E = -7.93768775 Ha
LI -0.000000 -0.002128 -0.088774
H   0.000000  0.014816  1.818005
2
Frame 1249   E = -7.93609581 Ha
LI -0.000000 -0.002308 -0.092316
H   0.000000  0.016065  1.842658
2
Frame 1250   E = -7.93449643 Ha
LI -0.000000 -0.002484 -0.095731
H   0.000000  0.017295  1.866432
2
Frame 1251   E = -7.93290487 Ha
LI -0.000000 -0.002658 -0.099015
H   0.000000  0.018503  1.889294
2
Frame 1252   E = -7.93133434 Ha
LI -0.000000 -0.002828 -0.102164
H   0.000000  0.019685  1.911215
2
Frame 1253   E = -7.92979623 Ha
LI -0.000000 -0.002993 -0.105174
H   0.000000  0.020838  1.932171
2
Frame 1254   E = -7.92830029 Ha
LI -0.000000 -0.003154 -0.108042
H   0.000000  0.021957  1.952140
2
Frame 1255   E = -7.92685489 Ha
LI -0.000000 -0.003309 -0.110766
H   0.000000  0.023039  1.971103
2
Frame 1256   E = -7.92546713 Ha
LI -0.000000 -0.003459 -0.113344
H   0.000000  0.024082  1.989045
2
Frame 1257   E = -7.92414305 Ha
LI -0.000000 -0.003603 -0.115772
H   0.000000  0.025082  2.005951
2
Frame 1258   E = -7.92288777 Ha
LI -0.000000 -0.003740 -0.118050
H   0.000000  0.026036  2.021811
2
Frame 1259   E = -7.92170559 Ha
LI -0.000000 -0.003870 -0.120177
H   0.000000  0.026943  2.036613
2
Frame 1260   E = -7.92060012 Ha
LI -0.000000 -0.003993 -0.122150
H   0.000000  0.027799  2.050349
2
Frame 1261   E = -7.91957440 Ha
LI -0.000000 -0.004109 -0.123969
H   0.000000  0.028603  2.063013
2
Frame 1262   E = -7.91863094 Ha
LI -0.000000 -0.004216 -0.125633
H   0.000000  0.029353  2.074598
2
Frame 1263   E = -7.91777185 Ha
LI -0.000000 -0.004316 -0.127141
H   0.000000  0.030046  2.085098
2
Frame 1264   E = -7.91699885 Ha
LI -0.000000 -0.004407 -0.128493
H   0.000000  0.030681  2.094509
2
Frame 1265   E = -7.91631336 Ha
LI -0.000000 -0.004490 -0.129688
H   0.000000  0.031257  2.102827
2
Frame 1266   E = -7.91571653 Ha
LI -0.000000 -0.004564 -0.130726
H   0.000000  0.031773  2.110050
2
Frame 1267   E = -7.91520929 Ha
LI -0.000000 -0.004629 -0.131605
H   0.000000  0.032226  2.116175
2
Frame 1268   E = -7.91479237 Ha
LI -0.000000 -0.004685 -0.132327
H   0.000000  0.032617  2.121199
2
Frame 1269   E = -7.91446635 Ha
LI -0.000000 -0.004732 -0.132891
H   0.000000  0.032944  2.125122
2
Frame 1270   E = -7.91423164 Ha
LI -0.000000 -0.004770 -0.133296
H   0.000000  0.033207  2.127941
2
Frame 1271   E = -7.91408854 Ha
LI -0.000000 -0.004799 -0.133542
H   0.000000  0.033405  2.129657
2
Frame 1272   E = -7.91403723 Ha
LI -0.000000 -0.004818 -0.133630
H   0.000000  0.033539  2.130268
2
Frame 1273   E = -7.91407777 Ha
LI -0.000000 -0.004828 -0.133559
H   0.000000  0.033607  2.129775
2
Frame 1274   E = -7.91421012 Ha
LI -0.000000 -0.004828 -0.133330
H   0.000000  0.033610  2.128177
2
Frame 1275   E = -7.91443412 Ha
LI -0.000000 -0.004819 -0.132941
H   0.000000  0.033548  2.125476
2
Frame 1276   E = -7.91474951 Ha
LI -0.000000 -0.004801 -0.132395
H   0.000000  0.033422  2.121671
2
Frame 1277   E = -7.91515587 Ha
LI -0.000000 -0.004774 -0.131690
H   0.000000  0.033232  2.116764
2
Frame 1278   E = -7.91565267 Ha
LI -0.000000 -0.004737 -0.130827
H   0.000000  0.032978  2.110757
2
Frame 1279   E = -7.91623921 Ha
LI -0.000000 -0.004692 -0.129806
H   0.000000  0.032662  2.103651
2
Frame 1280   E = -7.91691458 Ha
LI -0.000000 -0.004637 -0.128628
H   0.000000  0.032284  2.095449
2
Frame 1281   E = -7.91767767 Ha
LI -0.000000 -0.004574 -0.127293
H   0.000000  0.031845  2.086153
2
Frame 1282   E = -7.91852710 Ha
LI -0.000000 -0.004503 -0.125801
H   0.000000  0.031348  2.075769
2
Frame 1283   E = -7.91946119 Ha
LI -0.000000 -0.004423 -0.124154
H   0.000000  0.030793  2.064299
2
Frame 1284   E = -7.92047790 Ha
LI -0.000000 -0.004336 -0.122351
H   0.000000  0.030182  2.051749
2
Frame 1285   E = -7.92157475 Ha
LI -0.000000 -0.004240 -0.120394
H   0.000000  0.029517  2.038125
2
Frame 1286   E = -7.92274880 Ha
LI -0.000000 -0.004137 -0.118283
H   0.000000  0.028800  2.023434
2
Frame 1287   E = -7.92399649 Ha
LI -0.000000 -0.004027 -0.116021
H   0.000000  0.028033  2.007685
2
Frame 1288   E = -7.92531361 Ha
LI -0.000000 -0.003910 -0.113608
H   0.000000  0.027219  1.990887
2
Frame 1289   E = -7.92669515 Ha
LI -0.000000 -0.003786 -0.111046
H   0.000000  0.026360  1.973053
2
Frame 1290   E = -7.92813518 Ha
LI -0.000000 -0.003657 -0.108337
H   0.000000  0.025459  1.954194
2
Frame 1291   E = -7.92962671 Ha
LI -0.000000 -0.003522 -0.105484
H   0.000000  0.024519  1.934328
2
Frame 1292   E = -7.93116155 Ha
LI -0.000000 -0.003382 -0.102488
H   0.000000  0.023543  1.913473
2
Frame 1293   E = -7.93273008 Ha
LI -0.000000 -0.003237 -0.099353
H   0.000000  0.022535  1.891649
2
Frame 1294   E = -7.93432110 Ha
LI -0.000000 -0.003088 -0.096082
H   0.000000  0.021499  1.868881
2
Frame 1295   E = -7.93592161 Ha
LI -0.000000 -0.002936 -0.092680
H   0.000000  0.020437  1.845197
2
Frame 1296   E = -7.93751658 Ha
LI -0.000000 -0.002780 -0.089151
H   0.000000  0.019355  1.820630
2
Frame 1297   E = -7.93908871 Ha
LI -0.000000 -0.002622 -0.085501
H   0.000000  0.018256  1.795217
2
Frame 1298   E = -7.94061821 Ha
LI -0.000000 -0.002463 -0.081735
H   0.000000  0.017145  1.769004
2
Frame 1299   E = -7.94208262 Ha
LI -0.000000 -0.002302 -0.077862
H   0.000000  0.016026  1.742038
2
Frame 1300   E = -7.94345658 Ha
LI -0.000000 -0.002141 -0.073889
H   0.000000  0.014904  1.714378
2
Frame 1301   E = -7.94471178 Ha
LI -0.000000 -0.001980 -0.069825
H   0.000000  0.013784  1.686089
2
Frame 1302   E = -7.94581693 Ha
LI -0.000000 -0.001820 -0.065682
H   0.000000  0.012672  1.657247
2
Frame 1303   E = -7.94673790 Ha
LI -0.000000 -0.001662 -0.061472
H   0.000000  0.011572  1.627938
2
Frame 1304   E = -7.94743814 Ha
LI -0.000000 -0.001507 -0.057209
H   0.000000  0.010490  1.598260
2
Frame 1305   E = -7.94787928 Ha
LI -0.000000 -0.001355 -0.052908
H   0.000000  0.009431  1.568322
2
Frame 1306   E = -7.94802221 Ha
LI -0.000000 -0.001207 -0.048589
H   0.000000  0.008400  1.538251
2
Frame 1307   E = -7.94782856 Ha
LI -0.000000 -0.001063 -0.044270
H   0.000000  0.007403  1.508188
2
Frame 1308   E = -7.94726281 Ha
LI -0.000000 -0.000926 -0.039975
H   0.000000  0.006446  1.478289
2
Frame 1309   E = -7.94629493 Ha
LI -0.000000 -0.000795 -0.035729
H   0.000000  0.005533  1.448730
2
Frame 1310   E = -7.94490377 Ha
LI -0.000000 -0.000671 -0.031560
H   0.000000  0.004669  1.419705
2
Frame 1311   E = -7.94308100 Ha
LI -0.000000 -0.000554 -0.027498
H   0.000000  0.003859  1.391425
2
Frame 1312   E = -7.94083543 Ha
LI -0.000000 -0.000446 -0.023575
H   0.000000  0.003107  1.364118
2
Frame 1313   E = -7.93819751 Ha
LI -0.000000 -0.000347 -0.019828
H   0.000000  0.002418  1.338031
2
Frame 1314   E = -7.93522327 Ha
LI -0.000000 -0.000258 -0.016292
H   0.000000  0.001794  1.313421
2
Frame 1315   E = -7.93199715 Ha
LI -0.000000 -0.000178 -0.013008
H   0.000000  0.001240  1.290555
2
Frame 1316   E = -7.92863267 Ha
LI -0.000000 -0.000109 -0.010013
H   0.000000  0.000757  1.269706
2
Frame 1317   E = -7.92527013 Ha
LI -0.000000 -0.000050 -0.007346
H   0.000000  0.000347  1.251143
2
Frame 1318   E = -7.92207044 Ha
LI -0.000000 -0.000002 -0.005045
H   0.000000  0.000013  1.235122
2
Frame 1319   E = -7.91920494 Ha
LI -0.000000  0.000035 -0.003143
H   0.000000 -0.000244  1.221882
2
Frame 1320   E = -7.91684154 Ha
LI -0.000000  0.000061 -0.001670
H   0.000000 -0.000423  1.211628
2
Frame 1321   E = -7.91512877 Ha
LI -0.000000  0.000075 -0.000651
H   0.000000 -0.000523  1.204530
2
Frame 1322   E = -7.91417980 Ha
LI -0.000000  0.000078 -0.000102
H   0.000000 -0.000545  1.200708
2
Frame 1323   E = -7.91405936 Ha
LI -0.000000  0.000070 -0.000033
H   0.000000 -0.000487  1.200227
2
Frame 1324   E = -7.91477576 Ha
LI -0.000000  0.000050 -0.000445
H   0.000000 -0.000348  1.203095
2
Frame 1325   E = -7.91627994 Ha
LI -0.000000  0.000019 -0.001331
H   0.000000 -0.000131  1.209264
2
Frame 1326   E = -7.91847147 Ha
LI -0.000000 -0.000024 -0.002676
H   0.000000  0.000167  1.218627
2
Frame 1327   E = -7.92121037 Ha
LI -0.000000 -0.000078 -0.004457
H   0.000000  0.000544  1.231030
2
Frame 1328   E = -7.92433260 Ha
LI -0.000000 -0.000144 -0.006647
H   0.000000  0.001000  1.246277
2
Frame 1329   E = -7.92766627 Ha
LI -0.000000 -0.000220 -0.009213
H   0.000000  0.001534  1.264136
2
Frame 1330   E = -7.93104621 Ha
LI -0.000000 -0.000308 -0.012117
H   0.000000  0.002144  1.284356
2
Frame 1331   E = -7.93432542 Ha
LI -0.000000 -0.000406 -0.015323
H   0.000000  0.002828  1.306670
2
Frame 1332   E = -7.93738227 Ha
LI -0.000000 -0.000515 -0.018790
H   0.000000  0.003583  1.330807
2
Frame 1333   E = -7.94012393 Ha
LI -0.000000 -0.000633 -0.022480
H   0.000000  0.004407  1.356497
2
Frame 1334   E = -7.94248642 Ha
LI -0.000000 -0.000761 -0.026356
H   0.000000  0.005296  1.383478
2
Frame 1335   E = -7.94443233 Ha
LI -0.000000 -0.000897 -0.030382
H   0.000000  0.006246  1.411502
2
Frame 1336   E = -7.94594708 Ha
LI -0.000000 -0.001042 -0.034523
H   0.000000  0.007252  1.440334
2
Frame 1337   E = -7.94703454 Ha
LI -0.000000 -0.001194 -0.038750
H   0.000000  0.008310  1.469758
2
Frame 1338   E = -7.94771262 Ha
LI -0.000000 -0.001352 -0.043033
H   0.000000  0.009415  1.499576
2
Frame 1339   E = -7.94800918 Ha
LI -0.000000 -0.001517 -0.047347
H   0.000000  0.010560  1.529606
2
Frame 1340   E = -7.94795848 Ha
LI -0.000000 -0.001686 -0.051668
H   0.000000  0.011741  1.559687
2
Frame 1341   E = -7.94759831 Ha
LI -0.000000 -0.001860 -0.055975
H   0.000000  0.012951  1.589673
2
Frame 1342   E = -7.94696777 Ha
LI -0.000000 -0.002038 -0.060250
H   0.000000  0.014186  1.619434
2
Frame 1343   E = -7.94610556 Ha
LI -0.000000 -0.002218 -0.064477
H   0.000000  0.015439  1.648855
2
Frame 1344   E = -7.94504887 Ha
LI -0.000000 -0.002400 -0.068639
H   0.000000  0.016705  1.677836
2
Frame 1345   E = -7.94383258 Ha
LI -0.000000 -0.002583 -0.072726
H   0.000000  0.017979  1.706286
2
Frame 1346   E = -7.94248882 Ha
LI -0.000000 -0.002766 -0.076726
H   0.000000  0.019255  1.734128
2
Frame 1347   E = -7.94104677 Ha
LI -0.000000 -0.002949 -0.080628
H   0.000000  0.020528  1.761293
2
Frame 1348   E = -7.93953265 Ha
LI -0.000000 -0.003130 -0.084424
H   0.000000  0.021793  1.787721
2
Frame 1349   E = -7.93796975 Ha
LI -0.000000 -0.003310 -0.088107
H   0.000000  0.023045  1.813361
2
Frame 1350   E = -7.93637861 Ha
LI -0.000000 -0.003488 -0.091670
H   0.000000  0.024279  1.838167
2
Frame 1351   E = -7.93477723 Ha
LI -0.000000 -0.003662 -0.095108
H   0.000000  0.025492  1.862100
2
Frame 1352   E = -7.93318128 Ha
LI -0.000000 -0.003832 -0.098416
H   0.000000  0.026678  1.885125
2
Frame 1353   E = -7.93160432 Ha
LI -0.000000 -0.003998 -0.101589
H   0.000000  0.027834  1.907213
2
Frame 1354   E = -7.93005807 Ha
LI -0.000000 -0.004159 -0.104623
H   0.000000  0.028956  1.928339
2
Frame 1355   E = -7.92855257 Ha
LI -0.000000 -0.004315 -0.107517
H   0.000000  0.030041  1.948481
2
Frame 1356   E = -7.92709641 Ha
LI -0.000000 -0.004465 -0.110266
H   0.000000  0.031085  1.967619
2
Frame 1357   E = -7.92569694 Ha
LI -0.000000 -0.004609 -0.112869
H   0.000000  0.032085  1.985738
2
Frame 1358   E = -7.92436035 Ha
LI -0.000000 -0.004746 -0.115323
H   0.000000  0.033038  2.002822
2
Frame 1359   E = -7.92309193 Ha
LI -0.000000 -0.004875 -0.117627
H   0.000000  0.033941  2.018861
2
Frame 1360   E = -7.92189611 Ha
LI -0.000000 -0.004998 -0.119779
H   0.000000  0.034791  2.033843
2
Frame 1361   E = -7.92077662 Ha
LI -0.000000 -0.005112 -0.121778
H   0.000000  0.035588  2.047760
2
Frame 1362   E = -7.91973659 Ha
LI -0.000000 -0.005218 -0.123623
H   0.000000  0.036327  2.060605
2
Frame 1363   E = -7.91877862 Ha
LI -0.000000 -0.005316 -0.125313
H   0.000000  0.037008  2.072370
2
Frame 1364   E = -7.91790487 Ha
LI -0.000000 -0.005405 -0.126847
H   0.000000  0.037628  2.083051
2
Frame 1365   E = -7.91711713 Ha
LI -0.000000 -0.005485 -0.128225
H   0.000000  0.038185  2.092644
2
Frame 1366   E = -7.91641687 Ha
LI -0.000000 -0.005556 -0.129446
H   0.000000  0.038680  2.101143
2
Frame 1367   E = -7.91580526 Ha
LI -0.000000 -0.005618 -0.130510
H   0.000000  0.039109  2.108547
2
Frame 1368   E = -7.91528328 Ha
LI -0.000000 -0.005670 -0.131415
H   0.000000  0.039472  2.114852
2
Frame 1369   E = -7.91485168 Ha
LI -0.000000 -0.005713 -0.132163
H   0.000000  0.039769  2.120056
2
Frame 1370   E = -7.91451106 Ha
LI -0.000000 -0.005745 -0.132752
H   0.000000  0.039997  2.124158
2
Frame 1371   E = -7.91426186 Ha
LI -0.000000 -0.005769 -0.133183
H   0.000000  0.040158  2.127157
2
Frame 1372   E = -7.91410438 Ha
LI -0.000000 -0.005782 -0.133455
H   0.000000  0.040250  2.129051
2
Frame 1373   E = -7.91403882 Ha
LI -0.000000 -0.005785 -0.133568
H   0.000000  0.040273  2.129840
2
Frame 1374   E = -7.91406525 Ha
LI -0.000000 -0.005778 -0.133523
H   0.000000  0.040227  2.129524
2
Frame 1375   E = -7.91418365 Ha
LI -0.000000 -0.005762 -0.133319
H   0.000000  0.040112  2.128103
2
Frame 1376   E = -7.91439386 Ha
LI -0.000000 -0.005736 -0.132956
H   0.000000  0.039928  2.125578
2
Frame 1377   E = -7.91469563 Ha
LI -0.000000 -0.005699 -0.132435
H   0.000000  0.039676  2.121948
2
Frame 1378   E = -7.91508857 Ha
LI -0.000000 -0.005653 -0.131755
H   0.000000  0.039356  2.117216
2
Frame 1379   E = -7.91557216 Ha
LI -0.000000 -0.005598 -0.130917
H   0.000000  0.038969  2.111382
2
Frame 1380   E = -7.91614570 Ha
LI -0.000000 -0.005533 -0.129921
H   0.000000  0.038516  2.104449
2
Frame 1381   E = -7.91680833 Ha
LI -0.000000 -0.005458 -0.128767
H   0.000000  0.037997  2.096419
2
Frame 1382   E = -7.91755895 Ha
LI -0.000000 -0.005375 -0.127457
H   0.000000  0.037415  2.087294
2
Frame 1383   E = -7.91839621 Ha
LI -0.000000 -0.005282 -0.125989
H   0.000000  0.036770  2.077079
2
Frame 1384   E = -7.91931849 Ha
LI -0.000000 -0.005181 -0.124366
H   0.000000  0.036064  2.065778
2
Frame 1385   E = -7.92032377 Ha
LI -0.000000 -0.005071 -0.122587
H   0.000000  0.035299  2.053395
2
Frame 1386   E = -7.92140965 Ha
LI -0.000000 -0.004953 -0.120654
H   0.000000  0.034477  2.039937
2
Frame 1387   E = -7.92257324 Ha
LI -0.000000 -0.004826 -0.118567
H   0.000000  0.033599  2.025410
2
Frame 1388   E = -7.92381107 Ha
LI -0.000000 -0.004693 -0.116328
H   0.000000  0.032669  2.009824
2
Frame 1389   E = -7.92511902 Ha
LI -0.000000 -0.004552 -0.113939
H   0.000000  0.031688  1.993187
2
Frame 1390   E = -7.92649220 Ha
LI -0.000000 -0.004404 -0.111399
H   0.000000  0.030660  1.975510
2
Frame 1391   E = -7.92792479 Ha
LI -0.000000 -0.004250 -0.108713
H   0.000000  0.029586  1.956808
2
Frame 1392   E = -7.92940997 Ha
LI -0.000000 -0.004090 -0.105881
H   0.000000  0.028471  1.937095
2
Frame 1393   E = -7.93093971 Ha
LI -0.000000 -0.003924 -0.102907
H   0.000000  0.027318  1.916389
2
Frame 1394   E = -7.93250460 Ha
LI -0.000000 -0.003753 -0.099793
H   0.000000  0.026129  1.894711
2
Frame 1395   E = -7.93409367 Ha
LI -0.000000 -0.003578 -0.096543
H   0.000000  0.024909  1.872085
2
Frame 1396   E = -7.93569418 Ha
LI -0.000000 -0.003399 -0.093160
H   0.000000  0.023662  1.848539
2
Frame 1397   E = -7.93729139 Ha
LI -0.000000 -0.003217 -0.089650
H   0.000000  0.022392  1.824104
2
Frame 1398   E = -7.93886832 Ha
LI -0.000000 -0.003031 -0.086018
H   0.000000  0.021104  1.798818
2
Frame 1399   E = -7.94040556 Ha
LI -0.000000 -0.002844 -0.082270
H   0.000000  0.019800  1.772724
2
Frame 1400   E = -7.94188101 Ha
LI -0.000000 -0.002656 -0.078412
H   0.000000  0.018488  1.745870
2
Frame 1401   E = -7.94326975 Ha
LI -0.000000 -0.002466 -0.074454
H   0.000000  0.017170  1.718312
2
Frame 1402   E = -7.94454387 Ha
LI -0.000000 -0.002277 -0.070404
H   0.000000  0.015854  1.690116
2
Frame 1403   E = -7.94567251 Ha
LI -0.000000 -0.002089 -0.066272
H   0.000000  0.014543  1.661356
2
Frame 1404   E = -7.94662192 Ha
LI -0.000000 -0.001902 -0.062072
H   0.000000  0.013243  1.632114
2
Frame 1405   E = -7.94735586 Ha
LI -0.000000 -0.001718 -0.057816
H   0.000000  0.011959  1.602489
2
Frame 1406   E = -7.94783619 Ha
LI -0.000000 -0.001537 -0.053521
H   0.000000  0.010698  1.572587
2
Frame 1407   E = -7.94802382 Ha
LI -0.000000 -0.001360 -0.049204
H   0.000000  0.009464  1.542534
2
Frame 1408   E = -7.94788020 Ha
LI -0.000000 -0.001187 -0.044885
H   0.000000  0.008264  1.512466
2
Frame 1409   E = -7.94736925 Ha
LI -0.000000 -0.001020 -0.040586
H   0.000000  0.007102  1.482540
2
Frame 1410   E = -7.94646000 Ha
LI -0.000000 -0.000860 -0.036332
H   0.000000  0.005984  1.452927
2
Frame 1411   E = -7.94512985 Ha
LI -0.000000 -0.000706 -0.032151
H   0.000000  0.004914  1.423819
2
Frame 1412   E = -7.94336840 Ha
LI -0.000000 -0.000560 -0.028072
H   0.000000  0.003898  1.395425
2
Frame 1413   E = -7.94118177 Ha
LI -0.000000 -0.000422 -0.024128
H   0.000000  0.002939  1.367971
2
Frame 1414   E = -7.93859707 Ha
LI -0.000000 -0.000293 -0.020355
H   0.000000  0.002042  1.341699
2
Frame 1415   E = -7.93566651 Ha
LI -0.000000 -0.000174 -0.016788
H   0.000000  0.001210  1.316867
2
Frame 1416   E = -7.93247034 Ha
LI -0.000000 -0.000064 -0.013466
H   0.000000  0.000445  1.293742
2
Frame 1417   E = -7.92911799 Ha
LI -0.000000  0.000036 -0.010428
H   0.000000 -0.000250  1.272593
2
Frame 1418   E = -7.92574614 Ha
LI -0.000000  0.000126 -0.007713
H   0.000000 -0.000874  1.253692
2
Frame 1419   E = -7.92251324 Ha
LI -0.000000  0.000205 -0.005358
H   0.000000 -0.001425  1.237297
2
Frame 1420   E = -7.91958980 Ha
LI -0.000000  0.000274 -0.003397
H   0.000000 -0.001904  1.223649
2
Frame 1421   E = -7.91714506 Ha
LI -0.000000  0.000332 -0.001862
H   0.000000 -0.002310  1.212960
2
Frame 1422   E = -7.91533121 Ha
LI -0.000000  0.000380 -0.000776
H   0.000000 -0.002642  1.205405
2
Frame 1423   E = -7.91426729 Ha
LI -0.000000  0.000417 -0.000160
H   0.000000 -0.002902  1.201111
2
Frame 1424   E = -7.91402550 Ha
LI -0.000000  0.000444 -0.000022
H   0.000000 -0.003091  1.200151
2
Frame 1425   E = -7.91462245 Ha
LI -0.000000  0.000461 -0.000365
H   0.000000 -0.003207  1.202542
2
Frame 1426   E = -7.91601708 Ha
LI -0.000000  0.000467 -0.001184
H   0.000000 -0.003253  1.208243
2
Frame 1427   E = -7.91811578 Ha
LI -0.000000  0.000464 -0.002465
H   0.000000 -0.003228  1.217157
2
Frame 1428   E = -7.92078345 Ha
LI -0.000000  0.000450 -0.004185
H   0.000000 -0.003133  1.229135
2
Frame 1429   E = -7.92385864 Ha
LI -0.000000  0.000427 -0.006318
H   0.000000 -0.002970  1.243985
2
Frame 1430   E = -7.92716975 Ha
LI -0.000000  0.000393 -0.008832
H   0.000000 -0.002737  1.261483
2
Frame 1431   E = -7.93055004 Ha
LI -0.000000  0.000350 -0.011690
H   0.000000 -0.002438  1.281379
2
Frame 1432   E = -7.93384946 Ha
LI -0.000000  0.000298 -0.014854
H   0.000000 -0.002072  1.303407
2
Frame 1433   E = -7.93694258 Ha
LI -0.000000  0.000236 -0.018286
H   0.000000 -0.001642  1.327297
2
Frame 1434   E = -7.93973244 Ha
LI -0.000000  0.000165 -0.021946
H   0.000000 -0.001150  1.352778
2
Frame 1435   E = -7.94215107 Ha
LI -0.000000  0.000086 -0.025797
H   0.000000 -0.000599  1.379588
2
Frame 1436   E = -7.94415749 Ha
LI -0.000000 -0.000001 -0.029803
H   0.000000  0.000009  1.407476
2
Frame 1437   E = -7.94573408 Ha
LI -0.000000 -0.000096 -0.033930
H   0.000000  0.000670  1.436206
2
Frame 1438   E = -7.94688235 Ha
LI -0.000000 -0.000198 -0.038146
H   0.000000  0.001381  1.465558
2
Frame 1439   E = -7.94761841 Ha
LI -0.000000 -0.000307 -0.042423
H   0.000000  0.002136  1.495331
2
Frame 1440   E = -7.94796888 Ha
LI -0.000000 -0.000421 -0.046735
H   0.000000  0.002932  1.525344
2
Frame 1441   E = -7.94796725 Ha
LI -0.000000 -0.000541 -0.051056
H   0.000000  0.003764  1.555430
2
Frame 1442   E = -7.94765090 Ha
LI -0.000000 -0.000665 -0.055367
H   0.000000  0.004627  1.585441
2
Frame 1443   E = -7.94705881 Ha
LI -0.000000 -0.000792 -0.059649
H   0.000000  0.005516  1.615247
2
Frame 1444   E = -7.94622977 Ha
LI -0.000000 -0.000923 -0.063884
H   0.000000  0.006427  1.644730
2
Frame 1445   E = -7.94520119 Ha
LI -0.000000 -0.001056 -0.068058
H   0.000000  0.007354  1.673787
2
Frame 1446   E = -7.94400825 Ha
LI -0.000000 -0.001191 -0.072158
H   0.000000  0.008293  1.702327
2
Frame 1447   E = -7.94268348 Ha
LI -0.000000 -0.001327 -0.076172
H   0.000000  0.009239  1.730271
2
Frame 1448   E = -7.94125645 Ha
LI -0.000000 -0.001463 -0.080090
H   0.000000  0.010187  1.757549
2
Frame 1449   E = -7.93975376 Ha
LI -0.000000 -0.001599 -0.083904
H   0.000000  0.011132  1.784099
2
Frame 1450   E = -7.93819906 Ha
LI -0.000000 -0.001734 -0.087606
H   0.000000  0.012070  1.809869
2
Frame 1451   E = -7.93661327 Ha
LI -0.000000 -0.001867 -0.091189
H   0.000000  0.012997  1.834813
2
Frame 1452   E = -7.93501471 Ha
LI -0.000000 -0.001998 -0.094647
H   0.000000  0.013909  1.858890
2
Frame 1453   E = -7.93341934 Ha
LI -0.000000 -0.002126 -0.097976
H   0.000000  0.014802  1.882066
2
Frame 1454   E = -7.93184099 Ha
LI -0.000000 -0.002251 -0.101172
H   0.000000  0.015671  1.904310
2
Frame 1455   E = -7.93029161 Ha
LI -0.000000 -0.002372 -0.104230
H   0.000000  0.016515  1.925597
2
Frame 1456   E = -7.92878145 Ha
LI -0.000000 -0.002489 -0.107147
H   0.000000  0.017328  1.945904
2
Frame 1457   E = -7.92731929 Ha
LI -0.000000 -0.002601 -0.109920
H   0.000000  0.018108  1.965212
2
Frame 1458   E = -7.92591261 Ha
LI -0.000000 -0.002708 -0.112548
H   0.000000  0.018852  1.983503
2
Frame 1459   E = -7.92456777 Ha
LI -0.000000 -0.002809 -0.115027
H   0.000000  0.019557  2.000764
2
Frame 1460   E = -7.92329015 Ha
LI -0.000000 -0.002905 -0.117357
H   0.000000  0.020221  2.016981
2
Frame 1461   E = -7.92208428 Ha
LI -0.000000 -0.002994 -0.119535
H   0.000000  0.020841  2.032146
2
Frame 1462   E = -7.92095399 Ha
LI -0.000000 -0.003076 -0.121561
H   0.000000  0.021415  2.046248
2
Frame 1463   E = -7.91990247 Ha
LI -0.000000 -0.003152 -0.123433
H   0.000000  0.021940  2.059280
2
Frame 1464   E = -7.91893238 Ha
LI -0.000000 -0.003220 -0.125150
H   0.000000  0.022416  2.071235
2
Frame 1465   E = -7.91804593 Ha
LI -0.000000 -0.003281 -0.126712
H   0.000000  0.022840  2.082108
2
Frame 1466   E = -7.91724495 Ha
LI -0.000000 -0.003334 -0.128118
H   0.000000  0.023210  2.091894
2
Frame 1467   E = -7.91653095 Ha
LI -0.000000 -0.003379 -0.129367
H   0.000000  0.023526  2.100590
2
Frame 1468   E = -7.91590514 Ha
LI -0.000000 -0.003417 -0.130459
H   0.000000  0.023786  2.108191
2
Frame 1469   E = -7.91536850 Ha
LI -0.000000 -0.003446 -0.131393
H   0.000000  0.023990  2.114696
2
Frame 1470   E = -7.91492183 Ha
LI -0.000000 -0.003467 -0.132170
H   0.000000  0.024135  2.120102
2
Frame 1471   E = -7.91456572 Ha
LI -0.000000 -0.003479 -0.132788
H   0.000000  0.024222  2.124407
2
Frame 1472   E = -7.91430064 Ha
LI -0.000000 -0.003483 -0.133248
H   0.000000  0.024250  2.127611
2
Frame 1473   E = -7.91412690 Ha
LI -0.000000 -0.003479 -0.133550
H   0.000000  0.024219  2.129712
2
Frame 1474   E = -7.91404472 Ha
LI -0.000000 -0.003466 -0.133693
H   0.000000  0.024128  2.130709
2
Frame 1475   E = -7.91405419 Ha
LI -0.000000 -0.003444 -0.133678
H   0.000000  0.023978  2.130603
2
Frame 1476   E = -7.91415528 Ha
LI -0.000000 -0.003414 -0.133504
H   0.000000  0.023768  2.129393
2
Frame 1477   E = -7.91434787 Ha
LI -0.000000 -0.003376 -0.133172
H   0.000000  0.023499  2.127080
2
Frame 1478   E = -7.91463173 Ha
LI -0.000000 -0.003328 -0.132681
H   0.000000  0.023171  2.123665
2
Frame 1479   E = -7.91500648 Ha
LI -0.000000 -0.003273 -0.132032
H   0.000000  0.022785  2.119148
2
Frame 1480   E = -7.91547163 Ha
LI -0.000000 -0.003209 -0.131226
H   0.000000  0.022342  2.113530
2
Frame 1481   E = -7.91602653 Ha
LI -0.000000 -0.003137 -0.130261
H   0.000000  0.021841  2.106815
2
Frame 1482   E = -7.91667034 Ha
LI -0.000000 -0.003058 -0.129139
H   0.000000  0.021285  2.099004
2
Frame 1483   E = -7.91740203 Ha
LI -0.000000 -0.002970 -0.127860
H   0.000000  0.020675  2.090099
2
Frame 1484   E = -7.91822030 Ha
LI -0.000000 -0.002875 -0.126424
H   0.000000  0.020012  2.080105
2
Frame 1485   E = -7.91912358 Ha
LI -0.000000 -0.002772 -0.124832
H   0.000000  0.019298  2.069025
2
Frame 1486   E = -7.92010997 Ha
LI -0.000000 -0.002662 -0.123086
H   0.000000  0.018534  2.056864
2
Frame 1487   E = -7.92117716 Ha
LI -0.000000 -0.002546 -0.121184
H   0.000000  0.017722  2.043628
2
Frame 1488   E = -7.92232237 Ha
LI -0.000000 -0.002423 -0.119130
H   0.000000  0.016864  2.029324
2
Frame 1489   E = -7.92354229 Ha
LI -0.000000 -0.002293 -0.116922
H   0.000000  0.015964  2.013959
2
Frame 1490   E = -7.92483296 Ha
LI -0.000000 -0.002158 -0.114564
H   0.000000  0.015022  1.997544
2
Frame 1491   E = -7.92618967 Ha
LI -0.000000 -0.002017 -0.112057
H   0.000000  0.014042  1.980088
2
Frame 1492   E = -7.92760686 Ha
LI -0.000000 -0.001871 -0.109402
H   0.000000  0.013026  1.961605
2
Frame 1493   E = -7.92907796 Ha
LI -0.000000 -0.001721 -0.106601
H   0.000000  0.011977  1.942109
2
Frame 1494   E = -7.93059525 Ha
LI -0.000000 -0.001566 -0.103658
H   0.000000  0.010900  1.921619
2
Frame 1495   E = -7.93214968 Ha
LI -0.000000 -0.001407 -0.100575
H   0.000000  0.009796  1.900152
2
Frame 1496   E = -7.93373069 Ha
LI -0.000000 -0.001245 -0.097354
H   0.000000  0.008669  1.877734
2
Frame 1497   E = -7.93532599 Ha
LI -0.000000 -0.001081 -0.094001
H   0.000000  0.007524  1.854391
2
Frame 1498   E = -7.93692138 Ha
LI -0.000000 -0.000914 -0.090519
H   0.000000  0.006364  1.830153
2
Frame 1499   E = -7.93850045 Ha
LI -0.000000 -0.000746 -0.086914
H   0.000000  0.005192  1.805057
