2
Frame 0   E = -7.96803552 Ha
LI -0.000000 -0.000002 -0.000093
H   0.000000  0.000014  1.500649
2
Frame 1   E = -7.96811794 Ha
LI -0.000000 -0.000009 -0.000372
H   0.000000  0.000059  1.502587
2
Frame 2   E = -7.96825010 Ha
LI -0.000000 -0.000019 -0.000831
H   0.000000  0.000136  1.505785
2
Frame 3   E = -7.96842458 Ha
LI -0.000000 -0.000035 -0.001465
H   0.000000  0.000243  1.510200
2
Frame 4   E = -7.96863183 Ha
LI -0.000000 -0.000055 -0.002265
H   0.000000  0.000381  1.515768
2
Frame 5   E = -7.96886077 Ha
LI -0.000000 -0.000079 -0.003220
H   0.000000  0.000550  1.522413
2
Frame 6   E = -7.96909965 Ha
LI -0.000000 -0.000107 -0.004316
H   0.000000  0.000748  1.530046
2
Frame 7   E = -7.96933669 Ha
LI -0.000000 -0.000140 -0.005540
H   0.000000  0.000975  1.538567
2
Frame 8   E = -7.96956082 Ha
LI -0.000000 -0.000177 -0.006876
H   0.000000  0.001230  1.547868
2
Frame 9   E = -7.96976222 Ha
LI -0.000000 -0.000217 -0.008308
H   0.000000  0.001514  1.557833
2
Frame 10   E = -7.96993277 Ha
LI -0.000000 -0.000262 -0.009818
H   0.000000  0.001823  1.568345
2
Frame 11   E = -7.97006624 Ha
LI -0.000000 -0.000310 -0.011389
H   0.000000  0.002159  1.579283
2
Frame 12   E = -7.97015851 Ha
LI -0.000000 -0.000362 -0.013004
H   0.000000  0.002520  1.590526
2
Frame 13   E = -7.97020746 Ha
LI -0.000000 -0.000417 -0.014646
H   0.000000  0.002903  1.601955
2
Frame 14   E = -7.97021294 Ha
LI -0.000000 -0.000475 -0.016298
H   0.000000  0.003310  1.613454
2
Frame 15   E = -7.97017650 Ha
LI -0.000000 -0.000537 -0.017943
H   0.000000  0.003737  1.624911
2
Frame 16   E = -7.97010121 Ha
LI -0.000000 -0.000601 -0.019568
H   0.000000  0.004184  1.636219
2
Frame 17   E = -7.96999131 Ha
LI -0.000000 -0.000668 -0.021156
H   0.000000  0.004650  1.647276
2
Frame 18   E = -7.96985200 Ha
LI -0.000000 -0.000737 -0.022695
H   0.000000  0.005133  1.657986
2
Frame 19   E = -7.96968911 Ha
LI -0.000000 -0.000809 -0.024171
H   0.000000  0.005631  1.668262
2
Frame 20   E = -7.96950889 Ha
LI -0.000000 -0.000883 -0.025572
H   0.000000  0.006145  1.678021
2
Frame 21   E = -7.96931774 Ha
LI -0.000000 -0.000958 -0.026889
H   0.000000  0.006671  1.687188
2
Frame 22   E = -7.96912203 Ha
LI -0.000000 -0.001036 -0.028111
H   0.000000  0.007209  1.695696
2
Frame 23   E = -7.96892791 Ha
LI -0.000000 -0.001114 -0.029230
H   0.000000  0.007758  1.703482
2
Frame 24   E = -7.96874122 Ha
LI -0.000000 -0.001195 -0.030237
H   0.000000  0.008316  1.710493
2
Frame 25   E = -7.96856730 Ha
LI -0.000000 -0.001276 -0.031126
H   0.000000  0.008882  1.716681
2
Frame 26   E = -7.96841096 Ha
LI -0.000000 -0.001358 -0.031891
H   0.000000  0.009456  1.722005
2
Frame 27   E = -7.96827638 Ha
LI -0.000000 -0.001442 -0.032527
H   0.000000  0.010036  1.726431
2
Frame 28   E = -7.96816706 Ha
LI -0.000000 -0.001526 -0.033029
H   0.000000  0.010622  1.729930
2
Frame 29   E = -7.96808579 Ha
LI -0.000000 -0.001611 -0.033396
H   0.000000  0.011212  1.732480
2
Frame 30   E = -7.96803460 Ha
LI -0.000000 -0.001696 -0.033623
H   0.000000  0.011806  1.734066
2
Frame 31   E = -7.96801476 Ha
LI -0.000000 -0.001782 -0.033711
H   0.000000  0.012404  1.734677
2
Frame 32   E = -7.96802678 Ha
LI -0.000000 -0.001868 -0.033658
H   0.000000  0.013004  1.734310
2
Frame 33   E = -7.96807036 Ha
LI -0.000000 -0.001955 -0.033465
H   0.000000  0.013607  1.732967
2
Frame 34   E = -7.96814446 Ha
LI -0.000000 -0.002042 -0.033133
H   0.000000  0.014212  1.730656
2
Frame 35   E = -7.96824723 Ha
LI -0.000000 -0.002129 -0.032664
H   0.000000  0.014820  1.727391
2
Frame 36   E = -7.96837611 Ha
LI -0.000000 -0.002216 -0.032061
H   0.000000  0.015430  1.723193
2
Frame 37   E = -7.96852777 Ha
LI -0.000000 -0.002304 -0.031328
H   0.000000  0.016042  1.718088
2
Frame 38   E = -7.96869821 Ha
LI -0.000000 -0.002393 -0.030469
H   0.000000  0.016658  1.712109
2
Frame 39   E = -7.96888281 Ha
LI -0.000000 -0.002482 -0.029490
H   0.000000  0.017276  1.705295
2
Frame 40   E = -7.96907633 Ha
LI -0.000000 -0.002571 -0.028398
H   0.000000  0.017900  1.697692
2
Frame 41   E = -7.96927308 Ha
LI -0.000000 -0.002661 -0.027200
H   0.000000  0.018528  1.689352
2
Frame 42   E = -7.96946696 Ha
LI -0.000000 -0.002753 -0.025905
H   0.000000  0.019162  1.680335
2
Frame 43   E = -7.96965165 Ha
LI -0.000000 -0.002845 -0.024522
H   0.000000  0.019804  1.670707
2
Frame 44   E = -7.96982073 Ha
LI -0.000000 -0.002938 -0.023062
H   0.000000  0.020454  1.660542
2
Frame 45   E = -7.96996789 Ha
LI -0.000000 -0.003033 -0.021536
H   0.000000  0.021115  1.649918
2
Frame 46   E = -7.97008715 Ha
LI -0.000000 -0.003130 -0.019956
H   0.000000  0.021789  1.638923
2
Frame 47   E = -7.97017312 Ha
LI -0.000000 -0.003229 -0.018337
H   0.000000  0.022477  1.627651
2
Frame 48   E = -7.97022126 Ha
LI -0.000000 -0.003330 -0.016692
H   0.000000  0.023182  1.616202
2
Frame 49   E = -7.97022818 Ha
LI -0.000000 -0.003434 -0.015037
H   0.000000  0.023907  1.604681
2
Frame 50   E = -7.97019187 Ha
LI -0.000000 -0.003542 -0.013388
H   0.000000  0.024654  1.593199
2
Frame 51   E = -7.97011202 Ha
LI -0.000000 -0.003653 -0.011761
H   0.000000  0.025427  1.581871
2
Frame 52   E = -7.96999021 Ha
LI -0.000000 -0.003768 -0.010173
H   0.000000  0.026229  1.570817
2
Frame 53   E = -7.96983004 Ha
LI -0.000000 -0.003887 -0.008641
H   0.000000  0.027062  1.560155
2
Frame 54   E = -7.96963717 Ha
LI -0.000000 -0.004012 -0.007184
H   0.000000  0.027931  1.550008
2
Frame 55   E = -7.96941928 Ha
LI -0.000000 -0.004143 -0.005817
H   0.000000  0.028840  1.540493
2
Frame 56   E = -7.96918577 Ha
LI -0.000000 -0.004280 -0.004558
H   0.000000  0.029793  1.531728
2
Frame 57   E = -7.96894745 Ha
LI -0.000000 -0.004423 -0.003422
H   0.000000  0.030792  1.523822
2
Frame 58   E = -7.96871597 Ha
LI -0.000000 -0.004574 -0.002424
H   0.000000  0.031843  1.516877
2
Frame 59   E = -7.96850320 Ha
LI -0.000000 -0.004733 -0.001578
H   0.000000  0.032948  1.510986
2
Frame 60   E = -7.96832045 Ha
LI -0.000000 -0.004900 -0.000895
H   0.000000  0.034111  1.506229
2
Frame 61   E = -7.96817777 Ha
LI -0.000000 -0.005076 -0.000384
H   0.000000  0.035336  1.502672
2
Frame 62   E = -7.96808319 Ha
LI -0.000000 -0.005261 -0.000052
H   0.000000  0.036626  1.500363
2
Frame 63   E = -7.96804213 Ha
LI -0.000000 -0.005456  0.000095
H   0.000000  0.037982  1.499337
2
Frame 64   E = -7.96805703 Ha
LI -0.000000 -0.005661  0.000057
H   0.000000  0.039406  1.499606
2
Frame 65   E = -7.96812708 Ha
LI -0.000000 -0.005875 -0.000168
H   0.000000  0.040900  1.501166
2
Frame 66   E = -7.96824836 Ha
LI -0.000000 -0.006100 -0.000574
H   0.000000  0.042465  1.503994
2
Frame 67   E = -7.96841410 Ha
LI -0.000000 -0.006335 -0.001156
H   0.000000  0.044100  1.508049
2
Frame 68   E = -7.96861519 Ha
LI -0.000000 -0.006580 -0.001907
H   0.000000  0.045804  1.513272
2
Frame 69   E = -7.96884086 Ha
LI -0.000000 -0.006834 -0.002814
H   0.000000  0.047575  1.519592
2
Frame 70   E = -7.96907941 Ha
LI -0.000000 -0.007098 -0.003867
H   0.000000  0.049412  1.526920
2
Frame 71   E = -7.96931899 Ha
LI -0.000000 -0.007371 -0.005051
H   0.000000  0.051310  1.535160
2
Frame 72   E = -7.96954825 Ha
LI -0.000000 -0.007652 -0.006350
H   0.000000  0.053267  1.544205
2
Frame 73   E = -7.96975699 Ha
LI -0.000000 -0.007941 -0.007749
H   0.000000  0.055277  1.553942
2
Frame 74   E = -7.96993659 Ha
LI -0.000000 -0.008236 -0.009230
H   0.000000  0.057337  1.564252
2
Frame 75   E = -7.97008034 Ha
LI -0.000000 -0.008539 -0.010776
H   0.000000  0.059440  1.575015
2
Frame 76   E = -7.97018355 Ha
LI -0.000000 -0.008846 -0.012370
H   0.000000  0.061582  1.586111
2
Frame 77   E = -7.97024363 Ha
LI -0.000000 -0.009158 -0.013994
H   0.000000  0.063756  1.597420
2
Frame 78   E = -7.97025995 Ha
LI -0.000000 -0.009474 -0.015632
H   0.000000  0.065956  1.608824
2
Frame 79   E = -7.97023367 Ha
LI -0.000000 -0.009793 -0.017268
H   0.000000  0.068176  1.620211
2
Frame 80   E = -7.97016752 Ha
LI -0.000000 -0.010114 -0.018886
H   0.000000  0.070409  1.631470
2
Frame 81   E = -7.97006550 Ha
LI -0.000000 -0.010436 -0.020470
H   0.000000  0.072651  1.642501
2
Frame 82   E = -7.96993263 Ha
LI -0.000000 -0.010758 -0.022008
H   0.000000  0.074894  1.653205
2
Frame 83   E = -7.96977465 Ha
LI -0.000000 -0.011080 -0.023485
H   0.000000  0.077132  1.663492
2
Frame 84   E = -7.96959774 Ha
LI -0.000000 -0.011400 -0.024891
H   0.000000  0.079360  1.673279
2
Frame 85   E = -7.96940833 Ha
LI -0.000000 -0.011718 -0.026214
H   0.000000  0.081572  1.682488
2
Frame 86   E = -7.96921284 Ha
LI -0.000000 -0.012033 -0.027444
H   0.000000  0.083763  1.691051
2
Frame 87   E = -7.96901754 Ha
LI -0.000000 -0.012344 -0.028572
H   0.000000  0.085929  1.698904
2
Frame 88   E = -7.96882837 Ha
LI -0.000000 -0.012650 -0.029590
H   0.000000  0.088063  1.705990
2
Frame 89   E = -7.96865083 Ha
LI -0.000000 -0.012952 -0.030491
H   0.000000  0.090162  1.712262
2
Frame 90   E = -7.96848991 Ha
LI -0.000000 -0.013248 -0.031269
H   0.000000  0.092222  1.717676
2
Frame 91   E = -7.96834997 Ha
LI -0.000000 -0.013537 -0.031918
H   0.000000  0.094239  1.722197
2
Frame 92   E = -7.96823468 Ha
LI -0.000000 -0.013821 -0.032435
H   0.000000  0.096211  1.725794
2
Frame 93   E = -7.96814703 Ha
LI -0.000000 -0.014097 -0.032816
H   0.000000  0.098133  1.728444
2
Frame 94   E = -7.96808924 Ha
LI -0.000000 -0.014365 -0.033058
H   0.000000  0.100004  1.730130
2
Frame 95   E = -7.96806278 Ha
LI -0.000000 -0.014627 -0.033160
H   0.000000  0.101821  1.730841
2
Frame 96   E = -7.96806832 Ha
LI -0.000000 -0.014880 -0.033121
H   0.000000  0.103584  1.730572
2
Frame 97   E = -7.96810578 Ha
LI -0.000000 -0.015125 -0.032942
H   0.000000  0.105291  1.729323
2
Frame 98   E = -7.96817425 Ha
LI -0.000000 -0.015362 -0.032623
H   0.000000  0.106941  1.727101
2
Frame 99   E = -7.96827207 Ha
LI  0.000000 -0.015591 -0.032166
H  -0.000000  0.108535  1.723919
2
Frame 100   E = -7.96839680 Ha
LI  0.000000 -0.015812 -0.031574
H  -0.000000  0.110073  1.719797
2
Frame 101   E = -7.96854528 Ha
LI  0.000000 -0.016025 -0.030850
H  -0.000000  0.111555  1.714760
2
Frame 102   E = -7.96871363 Ha
LI  0.000000 -0.016230 -0.029999
H  -0.000000  0.112984  1.708838
2
Frame 103   E = -7.96889732 Ha
LI  0.000000 -0.016428 -0.029027
H  -0.000000  0.114361  1.702070
2
Frame 104   E = -7.96909120 Ha
LI  0.000000 -0.016619 -0.027940
H  -0.000000  0.115690  1.694500
2
Frame 105   E = -7.96928964 Ha
LI  0.000000 -0.016803 -0.026744
H  -0.000000  0.116974  1.686180
2
Frame 106   E = -7.96948658 Ha
LI  0.000000 -0.016982 -0.025450
H  -0.000000  0.118217  1.677167
2
Frame 107   E = -7.96967568 Ha
LI  0.000000 -0.017155 -0.024065
H  -0.000000  0.119424  1.667526
2
Frame 108   E = -7.96985048 Ha
LI  0.000000 -0.017324 -0.022600
H  -0.000000  0.120601  1.657328
2
Frame 109   E = -7.97000460 Ha
LI  0.000000 -0.017490 -0.021067
H  -0.000000  0.121755  1.646654
2
Frame 110   E = -7.97013192 Ha
LI  0.000000 -0.017653 -0.019477
H  -0.000000  0.122892  1.635587
2
Frame 111   E = -7.97022688 Ha
LI  0.000000 -0.017816 -0.017844
H  -0.000000  0.124022  1.624220
2
Frame 112   E = -7.97028472 Ha
LI  0.000000 -0.017978 -0.016182
H  -0.000000  0.125153  1.612652
2
Frame 113   E = -7.97030174 Ha
LI  0.000000 -0.018142 -0.014507
H  -0.000000  0.126294  1.600987
2
Frame 114   E = -7.97027565 Ha
LI  0.000000 -0.018309 -0.012833
H  -0.000000  0.127457  1.589336
2
Frame 115   E = -7.97020577 Ha
LI  0.000000 -0.018481 -0.011178
H  -0.000000  0.128654  1.577812
2
Frame 116   E = -7.97009330 Ha
LI  0.000000 -0.018659 -0.009557
H  -0.000000  0.129895  1.566533
2
Frame 117   E = -7.96994145 Ha
LI  0.000000 -0.018846 -0.007990
H  -0.000000  0.131194  1.555619
2
Frame 118   E = -7.96975553 Ha
LI  0.000000 -0.019043 -0.006492
H  -0.000000  0.132564  1.545190
2
Frame 119   E = -7.96954286 Ha
LI  0.000000 -0.019251 -0.005080
H  -0.000000  0.134018  1.535367
2
Frame 120   E = -7.96931262 Ha
LI  0.000000 -0.019474 -0.003773
H  -0.000000  0.135569  1.526264
2
Frame 121   E = -7.96907542 Ha
LI  0.000000 -0.019713 -0.002585
H  -0.000000  0.137232  1.517993
2
Frame 122   E = -7.96884288 Ha
LI  0.000000 -0.019970 -0.001531
H  -0.000000  0.139019  1.510659
2
Frame 123   E = -7.96862693 Ha
LI  0.000000 -0.020246 -0.000625
H  -0.000000  0.140942  1.504353
2
Frame 124   E = -7.96843910 Ha
LI  0.000000 -0.020544  0.000121
H  -0.000000  0.143013  1.499159
2
Frame 125   E = -7.96828975 Ha
LI  0.000000 -0.020864  0.000697
H  -0.000000  0.145241  1.495145
2
Frame 126   E = -7.96818737 Ha
LI  0.000000 -0.021208  0.001097
H  -0.000000  0.147635  1.492362
2
Frame 127   E = -7.96813790 Ha
LI  0.000000 -0.021576  0.001315
H  -0.000000  0.150203  1.490846
2
Frame 128   E = -7.96814429 Ha
LI  0.000000 -0.021971  0.001348
H  -0.000000  0.152948  1.490613
2
Frame 129   E = -7.96820632 Ha
LI  0.000000 -0.022391  0.001198
H  -0.000000  0.155872  1.491661
2
Frame 130   E = -7.96832053 Ha
LI  0.000000 -0.022837  0.000866
H  -0.000000  0.158977  1.493971
2
Frame 131   E = -7.96848055 Ha
LI  0.000000 -0.023308  0.000359
H  -0.000000  0.162260  1.497504
2
Frame 132   E = -7.96867757 Ha
LI  0.000000 -0.023805 -0.000317
H  -0.000000  0.165716  1.502204
2
Frame 133   E = -7.96890097 Ha
LI  0.000000 -0.024325 -0.001149
H  -0.000000  0.169339  1.508001
2
Frame 134   E = -7.96913907 Ha
LI  0.000000 -0.024868 -0.002128
H  -0.000000  0.173119  1.514811
2
Frame 135   E = -7.96937993 Ha
LI  0.000000 -0.025432 -0.003237
H  -0.000000  0.177045  1.522537
2
Frame 136   E = -7.96961200 Ha
LI  0.000000 -0.026016 -0.004464
H  -0.000000  0.181105  1.531074
2
Frame 137   E = -7.96982480 Ha
LI  0.000000 -0.026616 -0.005791
H  -0.000000  0.185285  1.540311
2
Frame 138   E = -7.97000941 Ha
LI  0.000000 -0.027231 -0.007201
H  -0.000000  0.189568  1.550129
2
Frame 139   E = -7.97015875 Ha
LI  0.000000 -0.027859 -0.008678
H  -0.000000  0.193939  1.560411
2
Frame 140   E = -7.97026781 Ha
LI  0.000000 -0.028497 -0.010204
H  -0.000000  0.198381  1.571034
2
Frame 141   E = -7.97033367 Ha
LI  0.000000 -0.029143 -0.011762
H  -0.000000  0.202876  1.581880
2
Frame 142   E = -7.97035543 Ha
LI  0.000000 -0.029794 -0.013335
H  -0.000000  0.207406  1.592832
2
Frame 143   E = -7.97033404 Ha
LI  0.000000 -0.030447 -0.014907
H  -0.000000  0.211955  1.603775
2
Frame 144   E = -7.97027204 Ha
LI  0.000000 -0.031101 -0.016463
H  -0.000000  0.216504  1.614603
2
Frame 145   E = -7.97017332 Ha
LI  0.000000 -0.031752 -0.017986
H  -0.000000  0.221037  1.625210
2
Frame 146   E = -7.97004284 Ha
LI  0.000000 -0.032398 -0.019465
H  -0.000000  0.225538  1.635501
2
Frame 147   E = -7.96988630 Ha
LI  0.000000 -0.033038 -0.020884
H  -0.000000  0.229990  1.645384
2
Frame 148   E = -7.96970992 Ha
LI  0.000000 -0.033668 -0.022233
H  -0.000000  0.234378  1.654776
2
Frame 149   E = -7.96952017 Ha
LI  0.000000 -0.034287 -0.023501
H  -0.000000  0.238689  1.663599
