15
Frame 0   E = -3005.47575429 Ha
C   0.519274  1.233015 -0.031951
C   1.944624  1.269128 -0.036729
C   2.620368  0.092901 -0.024967
C  -0.196032  0.030129  0.001029
H  -0.020536  2.173929 -0.043357
H   2.482531  2.208497 -0.036137
H  -1.277227  0.039948  0.011652
N   4.092185  0.095935  0.036633
O   4.639276 -1.021599  0.144588
O   4.664844  1.198306 -0.023277
C   0.494275 -1.167103  0.021025
H  -0.032253 -2.114497  0.054494
C   1.962909 -1.216554 -0.021130
H   2.443358 -1.962813  0.614890
BR  2.173043 -1.949123 -1.906189
15
Frame 1   E = -3005.47602242 Ha
C   0.519122  1.232955 -0.031958
C   1.944860  1.269020 -0.036729
C   2.620340  0.093101 -0.024899
C  -0.196025  0.030126  0.001033
H  -0.020069  2.173017 -0.043329
H   2.481686  2.207278 -0.036193
H  -1.275825  0.040082  0.011599
N   4.092336  0.095918  0.036643
O   4.639182 -1.021319  0.144577
O   4.664679  1.198035 -0.023282
C   0.494247 -1.167029  0.021109
H  -0.031490 -2.113226  0.054540
C   1.962900 -1.216617 -0.021180
H   2.442669 -1.962070  0.614153
BR  2.173050 -1.949128 -1.906192
15
Frame 2   E = -3005.47643104 Ha
C   0.518874  1.232852 -0.031968
C   1.945249  1.268837 -0.036729
C   2.620294  0.093431 -0.024786
C  -0.196008  0.030121  0.001041
H  -0.019317  2.171543 -0.043283
H   2.480320  2.205314 -0.036285
H  -1.273563  0.040304  0.011511
N   4.092586  0.095891  0.036660
O   4.639028 -1.020855  0.144558
O   4.664406  1.197585 -0.023291
C   0.494204 -1.166903  0.021247
H  -0.030258 -2.111173  0.054618
C   1.962884 -1.216718 -0.021266
H   2.441548 -1.960873  0.612960
BR  2.173063 -1.949136 -1.906199
15
Frame 3   E = -3005.47692948 Ha
C   0.518535  1.232700 -0.031983
C   1.945780  1.268573 -0.036729
C   2.620231  0.093887 -0.024627
C  -0.195972  0.030114  0.001051
H  -0.018322  2.169578 -0.043220
H   2.478492  2.202705 -0.036414
H  -1.270550  0.040610  0.011390
N   4.092930  0.095853  0.036683
O   4.638813 -1.020208  0.144533
O   4.664025  1.196958 -0.023304
C   0.494150 -1.166716  0.021440
H  -0.028612 -2.108434  0.054733
C   1.962856 -1.216850 -0.021392
H   2.440038 -1.959284  0.611363
BR  2.173080 -1.949148 -1.906207
15
Frame 4   E = -3005.47745930 Ha
C   0.518115  1.232491 -0.032002
C   1.946442  1.268221 -0.036729
C   2.620155  0.094463 -0.024424
C  -0.195909  0.030107  0.001064
H  -0.017137  2.167211 -0.043143
H   2.476285  2.199585 -0.036577
H  -1.266931  0.040998  0.011237
N   4.093363  0.095805  0.036713
O   4.638539 -1.019382  0.144500
O   4.663540  1.196158 -0.023320
C   0.494093 -1.166460  0.021686
H  -0.026628 -2.105135  0.054890
C   1.962814 -1.217005 -0.021564
H   2.438193 -1.957384  0.609433
BR  2.173102 -1.949162 -1.906218
15
Frame 5   E = -3005.47796469 Ha
C   0.517623  1.232219 -0.032025
C   1.947219  1.267773 -0.036729
C   2.620068  0.095151 -0.024176
C  -0.195804  0.030100  0.001080
H  -0.015826  2.164556 -0.043052
H   2.473799  2.196118 -0.036773
H  -1.262886  0.041461  0.011055
N   4.093879  0.095747  0.036748
O   4.638210 -1.018384  0.144461
O   4.662954  1.195190 -0.023340
C   0.494041 -1.166123  0.021984
H  -0.024399 -2.101435  0.055095
C   1.962753 -1.217173 -0.021788
H   2.436083 -1.955272  0.607254
BR  2.173129 -1.949180 -1.906232
15
Frame 6   E = -3005.47840274 Ha
C   0.517071  1.231874 -0.032051
C   1.948096  1.267221 -0.036729
C   2.619973  0.095941 -0.023884
C  -0.195645  0.030094  0.001099
H  -0.014464  2.161737 -0.042952
H   2.471146  2.192487 -0.037002
H  -1.258616  0.041993  0.010845
N   4.094471  0.095682  0.036789
O   4.637827 -1.017217  0.144416
O   4.662269  1.194061 -0.023365
C   0.494003 -1.165695  0.022334
H  -0.022029 -2.097510  0.055356
C   1.962666 -1.217340 -0.022071
H   2.433784 -1.953064  0.604926
BR  2.173161 -1.949201 -1.906247
15
Frame 7   E = -3005.47875157 Ha
C   0.516474  1.231445 -0.032081
C   1.949051  1.266554 -0.036728
C   2.619875  0.096824 -0.023549
C  -0.195416  0.030090  0.001121
H  -0.013126  2.158889 -0.042844
H   2.468448  2.188892 -0.037261
H  -1.254336  0.042590  0.010611
N   4.095129  0.095609  0.036836
O   4.637395 -1.015891  0.144366
O   4.661491  1.192776 -0.023395
C   0.493991 -1.165162  0.022732
H  -0.019631 -2.093548  0.055682
C   1.962550 -1.217495 -0.022420
H   2.431382 -1.950880  0.602553
BR  2.173198 -1.949225 -1.906266
15
Frame 8   E = -3005.47901412 Ha
C   0.515845  1.230924 -0.032115
C   1.950067  1.265767 -0.036728
C   2.619778  0.097786 -0.023171
C  -0.195104  0.030090  0.001146
H  -0.011893  2.156145 -0.042732
H   2.465826  2.185531 -0.037550
H  -1.250263  0.043241  0.010355
N   4.095843  0.095529  0.036888
O   4.636916 -1.014411  0.144312
O   4.660624  1.191345 -0.023429
C   0.494014 -1.164512  0.023178
H  -0.017318 -2.089741  0.056080
C   1.962398 -1.217623 -0.022845
H   2.428962 -1.948845  0.600242
BR  2.173239 -1.949252 -1.906286
15
Frame 9   E = -3005.47921626 Ha
C   0.515198  1.230303 -0.032153
C   1.951122  1.264853 -0.036728
C   2.619689  0.098813 -0.022752
C  -0.194697  0.030095  0.001173
H  -0.010837  2.153633 -0.042618
H   2.463397  2.182593 -0.037866
H  -1.246604  0.043941  0.010080
N   4.096601  0.095444  0.036945
O   4.636395 -1.012788  0.144254
O   4.659674  1.189775 -0.023469
C   0.494082 -1.163735  0.023669
H  -0.015198 -2.086270  0.056558
C   1.962205 -1.217710 -0.023352
H   2.426606 -1.947078  0.598099
BR  2.173285 -1.949283 -1.906309
