15
Iteration 0   E = -3005.47566089 Ha
C   0.519325  1.233035 -0.031949
C   1.944544  1.269164 -0.036729
C   2.620378  0.092834 -0.024990
C  -0.196034  0.030131  0.001027
H  -0.020694  2.174238 -0.043366
H   2.482817  2.208911 -0.036119
H  -1.277701  0.039903  0.011670
N   4.092135  0.095941  0.036630
O   4.639307 -1.021693  0.144592
O   4.664899  1.198397 -0.023275
C   0.494285 -1.167126  0.020997
H  -0.032511 -2.114927  0.054479
C   1.962912 -1.216532 -0.021113
H   2.443591 -1.963064  0.615139
BR  2.173040 -1.949122 -1.906188
15
Iteration 1   E = -3005.48055446 Ha
C   0.509418  1.229228 -0.032365
C   1.960000  1.262254 -0.036726
C   2.618514  0.105839 -0.020567
C  -0.195685  0.029909  0.001316
H  -0.018106  2.169195 -0.043212
H   2.478149  2.202162 -0.036423
H  -1.269948  0.040637  0.011379
N   4.103613  0.094669  0.037392
O   4.631216 -0.997461  0.143609
O   4.650643  1.174907 -0.023726
C   0.492387 -1.162479  0.026408
H  -0.028297 -2.107902  0.054722
C   1.962384 -1.220714 -0.024311
H   2.439792 -1.958953  0.611068
BR  2.176212 -1.951205 -1.907760
15
Iteration 2   E = -3005.48178855 Ha
C   0.509968  1.224285 -0.032934
C   1.960201  1.262789 -0.036414
C   2.623320  0.103433 -0.015805
C  -0.196418  0.031204  0.002081
H  -0.016750  2.165179 -0.043176
H   2.475000  2.196936 -0.036790
H  -1.263493  0.041149  0.011074
N   4.094042  0.094881  0.037461
O   4.631573 -0.988694  0.144409
O   4.646042  1.167155 -0.025324
C   0.493953 -1.159635  0.031545
H  -0.024672 -2.100821  0.055484
C   1.961452 -1.218575 -0.029518
H   2.436283 -1.955746  0.607664
BR  2.179791 -1.953454 -1.908951
15
Iteration 3   E = -3005.48286870 Ha
C   0.513714  1.218802 -0.034137
C   1.959164  1.254797 -0.034929
C   2.624864  0.102194 -0.007941
C  -0.193221  0.030951  0.004573
H  -0.013807  2.156045 -0.043386
H   2.470200  2.190057 -0.037536
H  -1.254593  0.042388  0.010582
N   4.075284  0.093680  0.038433
O   4.633361 -0.979654  0.147030
O   4.638250  1.162017 -0.029888
C   0.497851 -1.151415  0.040107
H  -0.018154 -2.088094  0.057987
C   1.960976 -1.213849 -0.038985
H   2.428791 -1.949604  0.600217
BR  2.187612 -1.958228 -1.911323
15
Iteration 4   E = -3005.48333149 Ha
C   0.517075  1.216442 -0.034711
C   1.957231  1.252619 -0.033194
C   2.621422  0.097629 -0.005008
C  -0.189991  0.031847  0.007059
H  -0.011875  2.150492 -0.043957
H   2.467296  2.185834 -0.037939
H  -1.251455  0.043199  0.010520
N   4.071563  0.094459  0.039940
O   4.632371 -0.978579  0.149448
O   4.630907  1.163287 -0.033935
C   0.501896 -1.147704  0.043380
H  -0.014558 -2.081058  0.060717
C   1.961036 -1.210730 -0.044116
H   2.423991 -1.946321  0.595188
BR  2.193384 -1.961328 -1.912586
15
Iteration 5   E = -3005.48377494 Ha
C   0.521836  1.215345 -0.035002
C   1.954664  1.248232 -0.029866
C   2.615904  0.094135 -0.002971
C  -0.185627  0.032636  0.011727
H  -0.009079  2.143046 -0.045537
H   2.463754  2.180425 -0.038260
H  -1.247764  0.044545  0.010973
N   4.069553  0.093906  0.042764
O   4.629579 -0.979441  0.154306
O   4.618234  1.170167 -0.041451
C   0.507821 -1.143096  0.045613
H  -0.009672 -2.072059  0.066370
C   1.960454 -1.208952 -0.050972
H   2.417173 -1.942615  0.587426
BR  2.203462 -1.966186 -1.914316
15
Iteration 6   E = -3005.48394255 Ha
C   0.522428  1.215345 -0.034388
C   1.954482  1.247455 -0.028059
C   2.615115  0.093331 -0.004037
C  -0.183830  0.032908  0.014249
H  -0.008287  2.141746 -0.046975
H   2.463004  2.178750 -0.037971
H  -1.246973  0.045179  0.011904
N   4.070024  0.095104  0.043748
O   4.628038 -0.980990  0.157794
O   4.611233  1.174398 -0.045778
C   0.508785 -1.142024  0.044411
H  -0.008229 -2.070045  0.070226
C   1.960195 -1.209608 -0.053858
H   2.415016 -1.942938  0.584486
BR  2.209292 -1.968522 -1.914945
15
Iteration 7   E = -3005.48417590 Ha
C   0.522886  1.215905 -0.032581
C   1.954695  1.246437 -0.025187
C   2.615575  0.092857 -0.007204
C  -0.183100  0.033250  0.018288
H  -0.007692  2.142016 -0.050081
H   2.462924  2.177285 -0.036833
H  -1.245620  0.046232  0.014490
N   4.069853  0.095976  0.044570
O   4.625445 -0.980773  0.165011
O   4.599942  1.181428 -0.053855
C   0.509248 -1.141642  0.041095
H  -0.006890 -2.068998  0.077721
C   1.960109 -1.211488 -0.058954
H   2.412416 -1.945678  0.580336
BR  2.220502 -1.972719 -1.916011
15
Iteration 8   E = -3005.48439460 Ha
C   0.522442  1.216719 -0.030235
C   1.955536  1.245866 -0.022725
C   2.616379  0.092154 -0.011173
C  -0.182918  0.033200  0.021781
H  -0.007498  2.144277 -0.053782
H   2.463840  2.176823 -0.034852
H  -1.245026  0.047296  0.018381
N   4.067539  0.098364  0.043934
O   4.624026 -0.977716  0.174059
O   4.589466  1.186623 -0.062874
C   0.508462 -1.141995  0.037483
H  -0.006577 -2.070110  0.086050
C   1.960641 -1.213858 -0.064447
H   2.410422 -1.950091  0.576532
BR  2.233561 -1.977463 -1.917328
15
Iteration 9   E = -3005.48466488 Ha
C   0.521941  1.218151 -0.027253
C   1.956024  1.245497 -0.020253
C   2.616033  0.090678 -0.016408
C  -0.183566  0.033006  0.025367
H  -0.007315  2.148355 -0.058899
H   2.465837  2.176783 -0.031230
H  -1.244912  0.048628  0.025054
N   4.062402  0.101356  0.041571
O   4.623423 -0.969221  0.187862
O   4.577920  1.191974 -0.075940
C   0.507360 -1.143777  0.033818
H  -0.006978 -2.072924  0.097230
C   1.961442 -1.217416 -0.072030
H   2.408002 -1.956602  0.571408
BR  2.252680 -1.984402 -1.919492
15
Iteration 10   E = -3005.48492097 Ha
C   0.521167  1.219796 -0.025313
C   1.955489  1.245611 -0.018980
C   2.613248  0.088813 -0.021020
C  -0.184153  0.032151  0.027446
H  -0.006911  2.152650 -0.063595
H   2.468341  2.176808 -0.026593
H  -1.245794  0.049702  0.033201
N   4.056242  0.105618  0.037699
O   4.624681 -0.957425  0.203060
O   4.569889  1.195167 -0.089809
C   0.505993 -1.146345  0.032283
H  -0.008149 -2.076653  0.107396
C   1.961754 -1.221389 -0.079244
H   2.405886 -1.962760  0.566269
BR  2.272609 -1.991656 -1.921996
15
Iteration 11   E = -3005.48513901 Ha
C   0.520369  1.221022 -0.025491
C   1.953252  1.246106 -0.019077
C   2.608289  0.087012 -0.024225
C  -0.184690  0.030862  0.027975
H  -0.006185  2.155672 -0.066899
H   2.470583  2.176113 -0.021527
H  -1.247043  0.050214  0.041879
N   4.051295  0.109742  0.033586
O   4.627096 -0.944565  0.217812
O   4.566363  1.197415 -0.103566
C   0.504775 -1.149328  0.033459
H  -0.009680 -2.079912  0.114825
C   1.960923 -1.225052 -0.085076
H   2.404195 -1.966933  0.561491
BR  2.290750 -1.998279 -1.924360
15
Iteration 12   E = -3005.48529767 Ha
C   0.519323  1.221304 -0.027877
C   1.950184  1.246402 -0.020211
C   2.603521  0.086070 -0.025859
C  -0.185069  0.029208  0.027605
H  -0.005432  2.156516 -0.068252
H   2.471781  2.174455 -0.017095
H  -1.247995  0.049991  0.049449
N   4.049315  0.113840  0.030715
O   4.629676 -0.934843  0.229745
O   4.566346  1.199256 -0.115575
C   0.503615 -1.151526  0.036233
H  -0.011246 -2.081859  0.118463
C   1.959112 -1.227446 -0.088590
H   2.403238 -1.968247  0.557890
BR  2.303922 -2.003033 -1.925836
15
Iteration 13   E = -3005.48544027 Ha
C   0.517809  1.220489 -0.031970
C   1.946707  1.246243 -0.022005
C   2.599968  0.085879 -0.027050
C  -0.185684  0.027311  0.027249
H  -0.004985  2.155823 -0.068507
H   2.471988  2.171776 -0.012749
H  -1.248628  0.049059  0.057094
N   4.049771  0.117905  0.029164
O   4.631888 -0.927003  0.241314
O   4.567645  1.202089 -0.128649
C   0.502179 -1.153267  0.039320
H  -0.013080 -2.082990  0.120088
C   1.956876 -1.228693 -0.090956
H   2.402796 -1.967657  0.554870
BR  2.315040 -2.006876 -1.926408
15
Iteration 14   E = -3005.48558793 Ha
C   0.515688  1.218573 -0.037392
C   1.943323  1.245223 -0.024501
C   2.598447  0.086509 -0.028455
C  -0.187005  0.024996  0.027354
H  -0.005292  2.153902 -0.068141
H   2.471119  2.168272 -0.008143
H  -1.249218  0.047259  0.065698
N   4.052147  0.122835  0.028731
O   4.633781 -0.920118  0.254261
O   4.569232  1.205711 -0.144680
C   0.500351 -1.154729  0.041741
H  -0.015548 -2.083843  0.120443
C   1.954809 -1.228748 -0.092704
H   2.402966 -1.965564  0.552409
BR  2.325492 -2.010190 -1.925817
15
Iteration 15   E = -3005.48573907 Ha
C   0.513218  1.215578 -0.042957
C   1.940770  1.243383 -0.027518
C   2.599660  0.087704 -0.030279
C  -0.189003  0.022542  0.028218
H  -0.006803  2.150987 -0.067578
H   2.468958  2.164617 -0.003700
H  -1.250198  0.044556  0.074909
N   4.055562  0.127797  0.029314
O   4.635101 -0.913664  0.268426
O   4.570467  1.209524 -0.163402
C   0.498533 -1.155912  0.042349
H  -0.018491 -2.084542  0.119791
C   1.953927 -1.227490 -0.094004
H   2.403836 -1.962246  0.551001
BR  2.334756 -2.012746 -1.923765
15
Iteration 16   E = -3005.48589273 Ha
C   0.510930  1.212068 -0.047189
C   1.939474  1.240902 -0.030717
C   2.603167  0.089147 -0.032487
C  -0.191565  0.020103  0.029878
H  -0.009650  2.147325 -0.067340
H   2.465558  2.161810  0.000044
H  -1.251845  0.041099  0.084196
N   4.058631  0.132649  0.030145
O   4.636106 -0.907152  0.283576
O   4.570722  1.212197 -0.183843
C   0.497486 -1.156890  0.040540
H  -0.021387 -2.085121  0.118482
C   1.954850 -1.225360 -0.095181
H   2.405329 -1.958185  0.551052
BR  2.342485 -2.014506 -1.920352
15
Iteration 17   E = -3005.48605640 Ha
C   0.508997  1.208312 -0.049139
C   1.939156  1.238421 -0.033785
C   2.607666  0.090386 -0.035045
C  -0.194098  0.017620  0.032258
H  -0.013747  2.142977 -0.067880
H   2.460950  2.160489  0.002859
H  -1.254347  0.036934  0.093694
N   4.060350  0.136844  0.030374
O   4.637102 -0.899222  0.300563
O   4.569769  1.213262 -0.206388
C   0.497671 -1.157757  0.036480
H  -0.023567 -2.085528  0.116810
C   1.957704 -1.223067 -0.096737
H   2.407276 -1.953677  0.552674
BR  2.349411 -2.015906 -1.915933
15
Iteration 18   E = -3005.48624115 Ha
C   0.507370  1.204593 -0.048549
C   1.938993  1.236428 -0.036500
C   2.611446  0.091356 -0.038012
C  -0.196449  0.014665  0.035256
H  -0.018995  2.137794 -0.069467
H   2.455145  2.161105  0.004785
H  -1.257439  0.031868  0.104187
N   4.060360  0.140932  0.028960
O   4.638661 -0.888411  0.321461
O   4.567595  1.212331 -0.232856
C   0.499376 -1.158853  0.030930
H  -0.024395 -2.085826  0.114767
C   1.961985 -1.221417 -0.099096
H   2.409606 -1.948768  0.555921
BR  2.357034 -2.017709 -1.910981
15
Iteration 19   E = -3005.48647199 Ha
C   0.505372  1.200490 -0.045723
C   1.937850  1.235529 -0.038823
C   2.613304  0.092224 -0.041639
C  -0.198260  0.010454  0.039019
H  -0.025754  2.131098 -0.072130
H   2.447500  2.163873  0.005904
H  -1.260822  0.025077  0.117287
N   4.059102  0.145309  0.025142
O   4.641113 -0.872327  0.350038
O   4.564566  1.209368 -0.267772
C   0.502563 -1.160451  0.024715
H  -0.023221 -2.086222  0.111564
C   1.967226 -1.220812 -0.102407
H   2.412570 -1.942721  0.561246
BR  2.367182 -2.020804 -1.905616
15
Iteration 20   E = -3005.48678185 Ha
C   0.502236  1.195566 -0.040909
C   1.934499  1.236150 -0.040603
C   2.612540  0.093751 -0.046128
C  -0.199538  0.003977  0.044012
H  -0.034915  2.121823 -0.075647
H   2.436814  2.169476  0.005689
H  -1.263642  0.015153  0.134478
N   4.057386  0.150951  0.018045
O   4.644563 -0.848302  0.390797
O   4.561126  1.203176 -0.316944
C   0.507492 -1.163023  0.018698
H  -0.018956 -2.087181  0.105353
C   1.973000 -1.221300 -0.106224
H   2.416750 -1.934168  0.569916
BR  2.380938 -2.025962 -1.899728
15
Iteration 21   E = -3005.48716882 Ha
C   0.497491  1.189973 -0.034530
C   1.928540  1.239140 -0.041019
C   2.609316  0.096761 -0.050503
C  -0.199313 -0.004701  0.050188
H  -0.046454  2.110252 -0.078776
H   2.422921  2.178424  0.002224
H  -1.264178  0.001749  0.153063
N   4.056432  0.156783  0.008282
O   4.647590 -0.817191  0.440380
O   4.558816  1.191868 -0.377794
C   0.513880 -1.166337  0.014806
H  -0.010305 -2.089461  0.093708
C   1.978461 -1.222226 -0.108330
H   2.422401 -1.922436  0.583021
BR  2.394694 -2.032510 -1.893915
15
Iteration 22   E = -3005.48758132 Ha
C   0.491877  1.185219 -0.028286
C   1.921083  1.244069 -0.039355
C   2.604895  0.101588 -0.053448
C  -0.197311 -0.013754  0.057077
H  -0.058342  2.099426 -0.080041
H   2.408466  2.189097 -0.005126
H  -1.260789 -0.012897  0.167635
N   4.056523  0.162075 -0.001561
O   4.648083 -0.785162  0.487690
O   4.558443  1.176305 -0.438370
C   0.520371 -1.170164  0.015107
H   0.001819 -2.094239  0.077818
C   1.982198 -1.222536 -0.106854
H   2.428369 -1.909678  0.598137
BR  2.404607 -2.039260 -1.889618
15
Iteration 23   E = -3005.48799155 Ha
C   0.485540  1.181377 -0.023592
C   1.913093  1.249798 -0.036450
C   2.600999  0.108104 -0.055376
C  -0.193858 -0.022552  0.065466
H  -0.070163  2.090951 -0.079372
H   2.394482  2.199283 -0.014762
H  -1.254299 -0.028016  0.178632
N   4.056734  0.168317 -0.009761
O   4.645113 -0.753175  0.532170
O   4.558947  1.159210 -0.499208
C   0.525910 -1.175046  0.019062
H   0.015454 -2.102951  0.060489
C   1.984785 -1.221196 -0.102658
H   2.433898 -1.897256  0.612414
BR  2.413655 -2.046760 -1.886251
15
Iteration 24   E = -3005.48817893 Ha
C   0.481481  1.181661 -0.018483
C   1.908274  1.257141 -0.031319
C   2.599089  0.116270 -0.051668
C  -0.187598 -0.027224  0.072533
H  -0.078694  2.089032 -0.073975
H   2.385208  2.209918 -0.031364
H  -1.243916 -0.039294  0.171075
N   4.057396  0.170097 -0.013251
O   4.635585 -0.736364  0.544921
O   4.563952  1.136526 -0.526655
C   0.530553 -1.179271  0.027956
H   0.031164 -2.114821  0.040390
C   1.985985 -1.216946 -0.090733
H   2.438549 -1.888338  0.626106
BR  2.403264 -2.048298 -1.884727
15
Iteration 25   E = -3005.48691067 Ha
C   0.465059  1.172291 -0.012296
C   1.889605  1.267224 -0.028059
C   2.594844  0.134502 -0.058401
C  -0.180617 -0.049439  0.099985
H  -0.108803  2.073360 -0.071572
H   2.352182  2.226906 -0.049976
H  -1.229527 -0.077406  0.204159
N   4.052922  0.197750 -0.029420
O   4.622656 -0.650837  0.668496
O   4.558631  1.101372 -0.700673
C   0.541433 -1.196549  0.037421
H   0.060486 -2.145867  0.007535
C   1.994935 -1.209091 -0.084569
H   2.450064 -1.861302  0.650206
BR  2.446425 -2.072828 -1.872031
15
Iteration 26   E = -3005.48866775 Ha
C   0.480463  1.181887 -0.021173
C   1.907610  1.255884 -0.032864
C   2.600406  0.117831 -0.053019
C  -0.187472 -0.028251  0.077531
H  -0.079346  2.092200 -0.073618
H   2.385737  2.205407 -0.029048
H  -1.243858 -0.040465  0.175200
N   4.053175  0.178117 -0.011945
O   4.631835 -0.730138  0.557346
O   4.558912  1.141067 -0.546188
C   0.529220 -1.182993  0.029153
H   0.030546 -2.121348  0.046610
C   1.986925 -1.214843 -0.093643
H   2.437055 -1.890618  0.619106
BR  2.419085 -2.053650 -1.882642
15
Iteration 27   E = -3005.48881263 Ha
C   0.479223  1.181354 -0.019099
C   1.906416  1.257258 -0.033431
C   2.600778  0.120525 -0.052004
C  -0.186289 -0.030502  0.081161
H  -0.082800  2.091379 -0.071906
H   2.382612  2.207698 -0.033281
H  -1.242831 -0.044711  0.174815
N   4.051808  0.180927 -0.012834
O   4.627899 -0.722743  0.566229
O   4.558707  1.135469 -0.562482
C   0.531476 -1.184830  0.029892
H   0.034845 -2.126306  0.042707
C   1.989150 -1.212684 -0.091614
H   2.439023 -1.888124  0.621647
BR  2.420274 -2.054622 -1.878996
15
Iteration 28   E = -3005.48911364 Ha
C   0.473506  1.178709 -0.009254
C   1.900652  1.263362 -0.037405
C   2.600402  0.131804 -0.047628
C  -0.182179 -0.040683  0.096022
H  -0.096643  2.086972 -0.064524
H   2.370289  2.216899 -0.050436
H  -1.240170 -0.062645  0.174652
N   4.044335  0.194662 -0.018982
O   4.611899 -0.687857  0.607354
O   4.555867  1.110651 -0.634962
C   0.540966 -1.193538  0.032578
H   0.054147 -2.145548  0.029407
C   1.999086 -1.204974 -0.084687
H   2.447865 -1.878402  0.630275
BR  2.430272 -2.059323 -1.861606
15
Iteration 29   E = -3005.48920759 Ha
C   0.473693  1.178649 -0.008855
C   1.900368  1.263651 -0.038574
C   2.599439  0.131630 -0.046879
C  -0.182705 -0.040681  0.095009
H  -0.095316  2.087202 -0.063283
H   2.372042  2.216068 -0.050669
H  -1.241296 -0.061728  0.172727
N   4.043647  0.194356 -0.019172
O   4.611262 -0.688036  0.603819
O   4.555217  1.110122 -0.631661
C   0.541054 -1.192953  0.032810
H   0.054578 -2.144690  0.032132
C   1.998840 -1.205254 -0.084739
H   2.448399 -1.879799  0.628176
BR  2.431071 -2.058448 -1.860034
15
Iteration 30   E = -3005.48940895 Ha
C   0.470911  1.176349 -0.005155
C   1.896013  1.266539 -0.044104
C   2.595099  0.134913 -0.044809
C  -0.184373 -0.044932  0.095593
H  -0.096124  2.084666 -0.056079
H   2.373121  2.216391 -0.056457
H  -1.244768 -0.065911  0.169754
N   4.039231  0.198682 -0.023522
O   4.605571 -0.671756  0.611983
O   4.551819  1.099323 -0.652167
C   0.543818 -1.194548  0.034705
