2
Frame 0   E = -75.33063695 Ha
O   0.000000  0.000006 -0.053880
H  -0.000000 -0.000084  0.922722
2
Frame 1   E = -75.33078836 Ha
O   0.000000  0.000014 -0.053765
H  -0.000000 -0.000210  0.920899
2
Frame 2   E = -75.33102175 Ha
O  -0.000000  0.000027 -0.053577
H   0.000000 -0.000419  0.917916
2
Frame 3   E = -75.33131016 Ha
O  -0.000000  0.000045 -0.053322
H   0.000000 -0.000708  0.913860
2
Frame 4   E = -75.33161882 Ha
O   0.000000  0.000068 -0.053006
H  -0.000000 -0.001076  0.908850
2
Frame 5   E = -75.33190835 Ha
O   0.000000  0.000096 -0.052640
H  -0.000000 -0.001520  0.903039
2
Frame 6   E = -75.33213902 Ha
O   0.000000  0.000129 -0.052235
H  -0.000000 -0.002036  0.896613
2
Frame 7   E = -75.33227591 Ha
O   0.000000  0.000166 -0.051805
H  -0.000000 -0.002622  0.889786
2
Frame 8   E = -75.33229452 Ha
O   0.000000  0.000207 -0.051365
H  -0.000000 -0.003274  0.882799
2
Frame 9   E = -75.33218613 Ha
O   0.000000  0.000252 -0.050931
H  -0.000000 -0.003989  0.875910
2
Frame 10   E = -75.33196157 Ha
O   0.000000  0.000301 -0.050520
H  -0.000000 -0.004766  0.869389
2
Frame 11   E = -75.33165227 Ha
O   0.000000  0.000353 -0.050149
H  -0.000000 -0.005601  0.863504
2
Frame 12   E = -75.33130717 Ha
O   0.000000  0.000410 -0.049834
H  -0.000000 -0.006496  0.858509
2
Frame 13   E = -75.33098534 Ha
O   0.000000  0.000470 -0.049590
H  -0.000000 -0.007449  0.854628
2
Frame 14   E = -75.33074507 Ha
O   0.000000  0.000533 -0.049427
H  -0.000000 -0.008461  0.852041
2
Frame 15   E = -75.33063177 Ha
O   0.000000  0.000601 -0.049353
H  -0.000000 -0.009535  0.850871
2
Frame 16   E = -75.33066780 Ha
O   0.000000  0.000673 -0.049372
H  -0.000000 -0.010671  0.851174
2
Frame 17   E = -75.33084726 Ha
O   0.000000  0.000748 -0.049483
H  -0.000000 -0.011872  0.852935
2
Frame 18   E = -75.33113743 Ha
O   0.000000  0.000828 -0.049681
H  -0.000000 -0.013139  0.856071
2
Frame 19   E = -75.33148623 Ha
O   0.000000  0.000912 -0.049956
H  -0.000000 -0.014474  0.860433
2
Frame 20   E = -75.33183365 Ha
O   0.000000  0.001001 -0.050295
H  -0.000000 -0.015878  0.865821
2
Frame 21   E = -75.33212363 Ha
O   0.000000  0.001094 -0.050684
H  -0.000000 -0.017351  0.871997
2
Frame 22   E = -75.33231376 Ha
O   0.000000  0.001191 -0.051107
H  -0.000000 -0.018891  0.878701
2
Frame 23   E = -75.33238089 Ha
O   0.000000  0.001292 -0.051545
H  -0.000000 -0.020498  0.885663
2
Frame 24   E = -75.33232238 Ha
O   0.000000  0.001397 -0.051983
H  -0.000000 -0.022170  0.892615
2
Frame 25   E = -75.33215382 Ha
O   0.000000  0.001506 -0.052405
H  -0.000000 -0.023904  0.899307
2
Frame 26   E = -75.33190445 Ha
O   0.000000  0.001619 -0.052796
H  -0.000000 -0.025696  0.905508
2
Frame 27   E = -75.33161161 Ha
O   0.000000  0.001736 -0.053143
H  -0.000000 -0.027544  0.911015
2
Frame 28   E = -75.33131522 Ha
O   0.000000  0.001856 -0.053435
H  -0.000000 -0.029444  0.915656
2
Frame 29   E = -75.33105307 Ha
O   0.000000  0.001978 -0.053664
H  -0.000000 -0.031391  0.919291
2
Frame 30   E = -75.33085698 Ha
O   0.000000  0.002104 -0.053823
H  -0.000000 -0.033384  0.921815
2
Frame 31   E = -75.33075012 Ha
O   0.000000  0.002232 -0.053908
H  -0.000000 -0.035417  0.923156
2
Frame 32   E = -75.33074523 Ha
O   0.000000  0.002362 -0.053915
H  -0.000000 -0.037488  0.923274
2
Frame 33   E = -75.33084375 Ha
O   0.000000  0.002495 -0.053845
H  -0.000000 -0.039594  0.922167
2
Frame 34   E = -75.33103577 Ha
O   0.000000  0.002630 -0.053700
H  -0.000000 -0.041732  0.919862
2
Frame 35   E = -75.33130074 Ha
O   0.000000  0.002767 -0.053484
H  -0.000000 -0.043901  0.916424
2
Frame 36   E = -75.33160901 Ha
O   0.000000  0.002905 -0.053202
H  -0.000000 -0.046103  0.911950
2
Frame 37   E = -75.33192432 Ha
O   0.000000  0.003046 -0.052863
H  -0.000000 -0.048337  0.906569
2
Frame 38   E = -75.33220731 Ha
O   0.000000  0.003189 -0.052477
H  -0.000000 -0.050607  0.900443
2
Frame 39   E = -75.33242000 Ha
O   0.000000  0.003335 -0.052056
H  -0.000000 -0.052920  0.893768
2
Frame 40   E = -75.33253099 Ha
O   0.000000  0.003484 -0.051615
H  -0.000000 -0.055283  0.886762
2
Frame 41   E = -75.33252097 Ha
O   0.000000  0.003636 -0.051168
H  -0.000000 -0.057706  0.879672
2
Frame 42   E = -75.33238752 Ha
O   0.000000  0.003794 -0.050732
H  -0.000000 -0.060203  0.872755
2
Frame 43   E = -75.33214797 Ha
O   0.000000  0.003957 -0.050324
H  -0.000000 -0.062790  0.866278
2
Frame 44   E = -75.33183917 Ha
O   0.000000  0.004126 -0.049960
H  -0.000000 -0.065483  0.860502
2
Frame 45   E = -75.33151306 Ha
O   0.000000  0.004304 -0.049655
H  -0.000000 -0.068300  0.855668
2
Frame 46   E = -75.33122827 Ha
O   0.000000  0.004490 -0.049423
H  -0.000000 -0.071260  0.851983
2
Frame 47   E = -75.33103886 Ha
O   0.000000  0.004687 -0.049273
H  -0.000000 -0.074378  0.849606
2
Frame 48   E = -75.33098283 Ha
O   0.000000  0.004894 -0.049212
H  -0.000000 -0.077667  0.848638
2
Frame 49   E = -75.33107361 Ha
O   0.000000  0.005113 -0.049242
H  -0.000000 -0.081135  0.849113
2
Frame 50   E = -75.33129696 Ha
O   0.000000  0.005343 -0.049361
H  -0.000000 -0.084785  0.850992
2
Frame 51   E = -75.33161424 Ha
O   0.000000  0.005584 -0.049561
H  -0.000000 -0.088614  0.854174
2
Frame 52   E = -75.33197120 Ha
O   0.000000  0.005836 -0.049833
H  -0.000000 -0.092611  0.858496
2
Frame 53   E = -75.33230938 Ha
O   0.000000  0.006097 -0.050164
H  -0.000000 -0.096762  0.863749
2
Frame 54   E = -75.33257729 Ha
O   0.000000  0.006367 -0.050539
H  -0.000000 -0.101047  0.869692
2
Frame 55   E = -75.33273864 Ha
O   0.000000  0.006644 -0.050941
H  -0.000000 -0.105440  0.876065
2
Frame 56   E = -75.33277653 Ha
O   0.000000  0.006926 -0.051353
H  -0.000000 -0.109915  0.882605
2
Frame 57   E = -75.33269360 Ha
O   0.000000  0.007211 -0.051759
H  -0.000000 -0.114445  0.889053
2
Frame 58   E = -75.33250909 Ha
O   0.000000  0.007499 -0.052144
H  -0.000000 -0.119001  0.895169
2
Frame 59   E = -75.33225399 Ha
O   0.000000  0.007786 -0.052495
H  -0.000000 -0.123557  0.900735
2
Frame 60   E = -75.33196572 Ha
O   0.000000  0.008071 -0.052799
H  -0.000000 -0.128086  0.905560
2
Frame 61   E = -75.33168299 Ha
O   0.000000  0.008353 -0.053046
H  -0.000000 -0.132566  0.909484
2
Frame 62   E = -75.33144146 Ha
O   0.000000  0.008631 -0.053229
H  -0.000000 -0.136976  0.912380
2
Frame 63   E = -75.33127037 Ha
O   0.000000  0.008903 -0.053340
H  -0.000000 -0.141299  0.914152
2
Frame 64   E = -75.33119024 Ha
O   0.000000  0.009169 -0.053377
H  -0.000000 -0.145521  0.914737
2
Frame 65   E = -75.33121139 Ha
O   0.000000  0.009429 -0.053337
H  -0.000000 -0.149632  0.914104
2
Frame 66   E = -75.33133330 Ha
O   0.000000  0.009680 -0.053221
H  -0.000000 -0.153628  0.912257
2
Frame 67   E = -75.33154469 Ha
O   0.000000  0.009925 -0.053030
H  -0.000000 -0.157507  0.909229
2
Frame 68   E = -75.33182435 Ha
O   0.000000  0.010162 -0.052769
H  -0.000000 -0.161274  0.905087
2
Frame 69   E = -75.33214273 Ha
O   0.000000  0.010393 -0.052444
H  -0.000000 -0.164939  0.899928
2
Frame 70   E = -75.33246441 Ha
O   0.000000  0.010619 -0.052063
H  -0.000000 -0.168518  0.893883
2
Frame 71   E = -75.33275149 Ha
O   0.000000  0.010840 -0.051636
H  -0.000000 -0.172034  0.887110
2
Frame 72   E = -75.33296787 Ha
O   0.000000  0.011059 -0.051176
H  -0.000000 -0.175516  0.879800
2
Frame 73   E = -75.33308422 Ha
O   0.000000  0.011279 -0.050695
H  -0.000000 -0.179001  0.872166
2
Frame 74   E = -75.33308309 Ha
O   0.000000  0.011502 -0.050208
H  -0.000000 -0.182532  0.864442
2
Frame 75   E = -75.33296328 Ha
O   0.000000  0.011730 -0.049731
H  -0.000000 -0.186158  0.856877
2
Frame 76   E = -75.33274236 Ha
O   0.000000  0.011968 -0.049281
H  -0.000000 -0.189930  0.849725
2
Frame 77   E = -75.33245620 Ha
O   0.000000  0.012218 -0.048872
H  -0.000000 -0.193904  0.843231
2
Frame 78   E = -75.33215460 Ha
O   0.000000  0.012485 -0.048518
H  -0.000000 -0.198134  0.837623
2
Frame 79   E = -75.33189326 Ha
O   0.000000  0.012770 -0.048233
H  -0.000000 -0.202668  0.833094
2
Frame 80   E = -75.33172318 Ha
O   0.000000  0.013078 -0.048025
H  -0.000000 -0.207550  0.829793
2
Frame 81   E = -75.33168001 Ha
O   0.000000  0.013409 -0.047900
H  -0.000000 -0.212808  0.827811
2
Frame 82   E = -75.33177616 Ha
O   0.000000  0.013765 -0.047860
H  -0.000000 -0.218459  0.827177
2
Frame 83   E = -75.33199796 Ha
O   0.000000  0.014146 -0.047903
H  -0.000000 -0.224503  0.827855
2
Frame 84   E = -75.33230887 Ha
O   0.000000  0.014551 -0.048022
H  -0.000000 -0.230923  0.829746
2
Frame 85   E = -75.33265751 Ha
O   0.000000  0.014977 -0.048208
H  -0.000000 -0.237687  0.832695
2
Frame 86   E = -75.33298842 Ha
O   0.000000  0.015422 -0.048448
H  -0.000000 -0.244748  0.836508
2
Frame 87   E = -75.33325242 Ha
O   0.000000  0.015882 -0.048728
H  -0.000000 -0.252047  0.840956
2
Frame 88   E = -75.33341446 Ha
O   0.000000  0.016352 -0.049033
H  -0.000000 -0.259519  0.845798
2
Frame 89   E = -75.33345760 Ha
O   0.000000  0.016830 -0.049348
H  -0.000000 -0.267093  0.850784
2
Frame 90   E = -75.33338338 Ha
O   0.000000  0.017309 -0.049656
H  -0.000000 -0.274696  0.855676
2
Frame 91   E = -75.33320914 Ha
O   0.000000  0.017785 -0.049944
H  -0.000000 -0.282260  0.860246
2
Frame 92   E = -75.33296368 Ha
O   0.000000  0.018255 -0.050199
H  -0.000000 -0.289715  0.864291
2
Frame 93   E = -75.33268224 Ha
O   0.000000  0.018714 -0.050409
H  -0.000000 -0.297002  0.867632
2
Frame 94   E = -75.33240175 Ha
O   0.000000  0.019159 -0.050566
H  -0.000000 -0.304064  0.870120
2
Frame 95   E = -75.33215672 Ha
O   0.000000  0.019587 -0.050661
H  -0.000000 -0.310856  0.871632
2
Frame 96   E = -75.33197608 Ha
O   0.000000  0.019996 -0.050689
H  -0.000000 -0.317339  0.872078
2
Frame 97   E = -75.33188088 Ha
O   0.000000  0.020383 -0.050646
H  -0.000000 -0.323483  0.871397
2
Frame 98   E = -75.33188287 Ha
O   0.000000  0.020747 -0.050530
H  -0.000000 -0.329268  0.869558
2
Frame 99   E = -75.33198381 Ha
O   0.000000  0.021088 -0.050341
H  -0.000000 -0.334684  0.866557
2
Frame 100   E = -75.33217541 Ha
O   0.000000  0.021406 -0.050081
H  -0.000000 -0.339731  0.862421
2
Frame 101   E = -75.33243990 Ha
O   0.000000  0.021702 -0.049752
H  -0.000000 -0.344421  0.857206
2
Frame 102   E = -75.33275133 Ha
O   0.000000  0.021976 -0.049361
H  -0.000000 -0.348777  0.850994
2
Frame 103   E = -75.33307751 Ha
O   0.000000  0.022232 -0.048914
H  -0.000000 -0.352835  0.843898
2
Frame 104   E = -75.33338291 Ha
O   0.000000  0.022472 -0.048419
H  -0.000000 -0.356642  0.836054
2
Frame 105   E = -75.33363228 Ha
O   0.000000  0.022700 -0.047888
H  -0.000000 -0.360259  0.827627
2
Frame 106   E = -75.33379502 Ha
O   0.000000  0.022920 -0.047333
H  -0.000000 -0.363759  0.818804
2
Frame 107   E = -75.33384988 Ha
O   0.000000  0.023139 -0.046765
H  -0.000000 -0.367228  0.809790
2
Frame 108   E = -75.33378932 Ha
O   0.000000  0.023362 -0.046198
H  -0.000000 -0.370759  0.800806
2
Frame 109   E = -75.33362263 Ha
O   0.000000  0.023595 -0.045648
H  -0.000000 -0.374457  0.792076
2
Frame 110   E = -75.33337665 Ha
O   0.000000  0.023845 -0.045128
H  -0.000000 -0.378424  0.783824
2
Frame 111   E = -75.33309329 Ha
O   0.000000  0.024118 -0.044652
H  -0.000000 -0.382767  0.776259
2
Frame 112   E = -75.33282346 Ha
O   0.000000  0.024421 -0.044230
H  -0.000000 -0.387579  0.769566
2
Frame 113   E = -75.33261811 Ha
O   0.000000  0.024759 -0.043873
H  -0.000000 -0.392943  0.763892
2
Frame 114   E = -75.33251821 Ha
O   0.000000  0.025136 -0.043586
H  -0.000000 -0.398922  0.759339
2
Frame 115   E = -75.33254599 Ha
O   0.000000  0.025554 -0.043372
H  -0.000000 -0.405551  0.755955
2
Frame 116   E = -75.33270007 Ha
O   0.000000  0.026013 -0.043232
H  -0.000000 -0.412838  0.753731
2
Frame 117   E = -75.33295575 Ha
O   0.000000  0.026512 -0.043161
H  -0.000000 -0.420762  0.752603
2
Frame 118   E = -75.33327054 Ha
O   0.000000  0.027048 -0.043152
H  -0.000000 -0.429270  0.752457
2
Frame 119   E = -75.33359308 Ha
O   0.000000  0.027616 -0.043195
H  -0.000000 -0.438286  0.753137
2
Frame 120   E = -75.33387317 Ha
O   0.000000  0.028210 -0.043278
H  -0.000000 -0.447710  0.754457
2
Frame 121   E = -75.33407040 Ha
O   0.000000  0.028822 -0.043389
H  -0.000000 -0.457428  0.756211
2
Frame 122   E = -75.33415969 Ha
O   0.000000  0.029445 -0.043513
H  -0.000000 -0.467316  0.758186
2
Frame 123   E = -75.33413339 Ha
O   0.000000  0.030071 -0.043638
H  -0.000000 -0.477247  0.760170
2
Frame 124   E = -75.33400016 Ha
O   0.000000  0.030692 -0.043751
H  -0.000000 -0.487096  0.761964
2
Frame 125   E = -75.33378177 Ha
O   0.000000  0.031300 -0.043841
H  -0.000000 -0.496743  0.763384
2
Frame 126   E = -75.33350869 Ha
O   0.000000  0.031888 -0.043896
H  -0.000000 -0.506078  0.764265
2
Frame 127   E = -75.33321554 Ha
O   0.000000  0.032450 -0.043909
H  -0.000000 -0.515001  0.764470
2
Frame 128   E = -75.33293691 Ha
O   0.000000  0.032981 -0.043872
H  -0.000000 -0.523428  0.763882
2
Frame 129   E = -75.33270391 Ha
O   0.000000  0.033476 -0.043779
H  -0.000000 -0.531286  0.762412
2
Frame 130   E = -75.33254162 Ha
O   0.000000  0.033932 -0.043627
H  -0.000000 -0.538520  0.759997
2
Frame 131   E = -75.33246723 Ha
O   0.000000  0.034346 -0.043413
H  -0.000000 -0.545090  0.756597
2
Frame 132   E = -75.33248901 Ha
O   0.000000  0.034717 -0.043136
H  -0.000000 -0.550972  0.752197
2
Frame 133   E = -75.33260576 Ha
O   0.000000  0.035043 -0.042796
H  -0.000000 -0.556159  0.746806
2
Frame 134   E = -75.33280700 Ha
O   0.000000  0.035327 -0.042396
H  -0.000000 -0.560662  0.740458
2
Frame 135   E = -75.33307358 Ha
O   0.000000  0.035570 -0.041939
H  -0.000000 -0.564509  0.733207
2
Frame 136   E = -75.33337897 Ha
O   0.000000  0.035774 -0.041430
H  -0.000000 -0.567747  0.725133
2
Frame 137   E = -75.33369133 Ha
O   0.000000  0.035943 -0.040876
H  -0.000000 -0.570442  0.716336
2
Frame 138   E = -75.33397620 Ha
O   0.000000  0.036084 -0.040284
H  -0.000000 -0.572679  0.706937
2
Frame 139   E = -75.33420014 Ha
O   0.000000  0.036203 -0.039663
H  -0.000000 -0.574562  0.697077
2
Frame 140   E = -75.33433485 Ha
O   0.000000  0.036307 -0.039022
H  -0.000000 -0.576214  0.686916
2
Frame 141   E = -75.33436167 Ha
O   0.000000  0.036405 -0.038374
H  -0.000000 -0.577771  0.676624
2
Frame 142   E = -75.33427558 Ha
O   0.000000  0.036507 -0.037729
H  -0.000000 -0.579387  0.666382
2
Frame 143   E = -75.33408790 Ha
O   0.000000  0.036622 -0.037098
H  -0.000000 -0.581219  0.656375
2
Frame 144   E = -75.33382662 Ha
O   0.000000  0.036762 -0.036494
H  -0.000000 -0.583429  0.646781
2
Frame 145   E = -75.33353361 Ha
O   0.000000  0.036934 -0.035925
H  -0.000000 -0.586171  0.637764
2
Frame 146   E = -75.33325848 Ha
O   0.000000  0.037150 -0.035403
H  -0.000000 -0.589586  0.629468
2
Frame 147   E = -75.33304983 Ha
O   0.000000  0.037414 -0.034932
H  -0.000000 -0.593789  0.622003
2
Frame 148   E = -75.33294566 Ha
O   0.000000  0.037734 -0.034519
H  -0.000000 -0.598863  0.615443
2
Frame 149   E = -75.33296532 Ha
O   0.000000  0.038112 -0.034164
H  -0.000000 -0.604855  0.609817
2
Frame 150   E = -75.33310527 Ha
O   0.000000  0.038547 -0.033868
H  -0.000000 -0.611764  0.605110
2
Frame 151   E = -75.33333986 Ha
O   0.000000  0.039038 -0.033626
H  -0.000000 -0.619550  0.601265
2
Frame 152   E = -75.33362692 Ha
O   0.000000  0.039578 -0.033432
H  -0.000000 -0.628127  0.598187
2
Frame 153   E = -75.33391653 Ha
O   0.000000  0.040161 -0.033278
H  -0.000000 -0.637377  0.595749
2
Frame 154   E = -75.33416059 Ha
O   0.000000  0.040777 -0.033155
H  -0.000000 -0.647150  0.593804
2
Frame 155   E = -75.33432093 Ha
O   0.000000  0.041415 -0.033054
H  -0.000000 -0.657281  0.592192
2
Frame 156   E = -75.33437445 Ha
O   0.000000  0.042065 -0.032963
H  -0.000000 -0.667589  0.590749
2
Frame 157   E = -75.33431494 Ha
O   0.000000  0.042714 -0.032873
H  -0.000000 -0.677893  0.589315
2
Frame 158   E = -75.33415188 Ha
O   0.000000  0.043352 -0.032773
H  -0.000000 -0.688018  0.587740
2
Frame 159   E = -75.33390730 Ha
O   0.000000  0.043968 -0.032657
H  -0.000000 -0.697796  0.585889
2
Frame 160   E = -75.33361147 Ha
O   0.000000  0.044553 -0.032515
H  -0.000000 -0.707076  0.583642
2
Frame 161   E = -75.33329856 Ha
O   0.000000  0.045098 -0.032342
H  -0.000000 -0.715725  0.580899
2
Frame 162   E = -75.33300253 Ha
O   0.000000  0.045595 -0.032133
H  -0.000000 -0.723627  0.577578
2
Frame 163   E = -75.33275389 Ha
O   0.000000  0.046040 -0.031884
H  -0.000000 -0.730690  0.573619
2
Frame 164   E = -75.33257709 Ha
O   0.000000  0.046428 -0.031591
H  -0.000000 -0.736843  0.568979
2
Frame 165   E = -75.33248879 Ha
O   0.000000  0.046755 -0.031254
H  -0.000000 -0.742037  0.563634
2
Frame 166   E = -75.33249673 Ha
O   0.000000  0.047021 -0.030873
H  -0.000000 -0.746246  0.557579
2
Frame 167   E = -75.33259927 Ha
O   0.000000  0.047224 -0.030447
H  -0.000000 -0.749468  0.550826
2
Frame 168   E = -75.33278545 Ha
O   0.000000  0.047366 -0.029980
H  -0.000000 -0.751725  0.543404
2
Frame 169   E = -75.33303562 Ha
O   0.000000  0.047450 -0.029473
H  -0.000000 -0.753063  0.535358
2
Frame 170   E = -75.33332274 Ha
O   0.000000  0.047481 -0.028931
H  -0.000000 -0.753551  0.526751
2
Frame 171   E = -75.33361441 Ha
O   0.000000  0.047464 -0.028358
H  -0.000000 -0.753286  0.517657
2
Frame 172   E = -75.33387572 Ha
O   0.000000  0.047408 -0.027760
H  -0.000000 -0.752389  0.508170
2
Frame 173   E = -75.33407287 Ha
O   0.000000  0.047320 -0.027144
H  -0.000000 -0.751003  0.498393
2
Frame 174   E = -75.33417752 Ha
O   0.000000  0.047213 -0.026517
H  -0.000000 -0.749299  0.488443
2
Frame 175   E = -75.33417137 Ha
O   0.000000  0.047097 -0.025887
H  -0.000000 -0.747462  0.478443
2
Frame 176   E = -75.33405026 Ha
O   0.000000  0.046986 -0.025262
H  -0.000000 -0.745694  0.468522
2
Frame 177   E = -75.33382692 Ha
O   0.000000  0.046892 -0.024650
H  -0.000000 -0.744207  0.458810
2
Frame 178   E = -75.33353120 Ha
O   0.000000  0.046829 -0.024059
H  -0.000000 -0.743210  0.449431
2
Frame 179   E = -75.33320699 Ha
O   0.000000  0.046810 -0.023496
H  -0.000000 -0.742903  0.440499
2
Frame 180   E = -75.33290565 Ha
O   0.000000  0.046845 -0.022967
H  -0.000000 -0.743463  0.432107
2
Frame 181   E = -75.33267686 Ha
O   0.000000  0.046944 -0.022477
H  -0.000000 -0.745034  0.424329
2
Frame 182   E = -75.33255868 Ha
O   0.000000  0.047113 -0.022028
H  -0.000000 -0.747714  0.417209
2
Frame 183   E = -75.33256933 Ha
O   0.000000  0.047355 -0.021622
H  -0.000000 -0.751553  0.410761
2
Frame 184   E = -75.33270316 Ha
O   0.000000  0.047669 -0.021257
H  -0.000000 -0.756543  0.404968
2
Frame 185   E = -75.33293188 Ha
O   0.000000  0.048052 -0.020931
H  -0.000000 -0.762620  0.399786
2
Frame 186   E = -75.33321076 Ha
O   0.000000  0.048497 -0.020638
H  -0.000000 -0.769670  0.395144
2
Frame 187   E = -75.33348798 Ha
O   0.000000  0.048992 -0.020374
H  -0.000000 -0.777535  0.390955
2
Frame 188   E = -75.33371455 Ha
O   0.000000  0.049527 -0.020132
H  -0.000000 -0.786024  0.387116
2
Frame 189   E = -75.33385253 Ha
O   0.000000  0.050088 -0.019906
H  -0.000000 -0.794924  0.383521
2
Frame 190   E = -75.33388009 Ha
O   0.000000  0.050660 -0.019688
H  -0.000000 -0.804011  0.380062
2
Frame 191   E = -75.33379296 Ha
O   0.000000  0.051231 -0.019472
H  -0.000000 -0.813063  0.376637
2
Frame 192   E = -75.33360297 Ha
O   0.000000  0.051785 -0.019252
H  -0.000000 -0.821865  0.373150
2
Frame 193   E = -75.33333445 Ha
O   0.000000  0.052312 -0.019023
H  -0.000000 -0.830216  0.369518
2
Frame 194   E = -75.33301971 Ha
O   0.000000  0.052798 -0.018781
H  -0.000000 -0.837939  0.365668
2
Frame 195   E = -75.33269442 Ha
O   0.000000  0.053235 -0.018521
H  -0.000000 -0.844876  0.361543
2
Frame 196   E = -75.33239341 Ha
O   0.000000  0.053615 -0.018241
H  -0.000000 -0.850898  0.357095
2
Frame 197   E = -75.33214728 Ha
O   0.000000  0.053930 -0.017938
H  -0.000000 -0.855902  0.352293
2
Frame 198   E = -75.33197978 Ha
O   0.000000  0.054176 -0.017612
H  -0.000000 -0.859814  0.347116
2
Frame 199   E = -75.33190611 Ha
O   0.000000  0.054351 -0.017261
H  -0.000000 -0.862585  0.341555
2
Frame 200   E = -75.33193176 Ha
O   0.000000  0.054453 -0.016887
H  -0.000000 -0.864197  0.335612
2
Frame 201   E = -75.33205221 Ha
O   0.000000  0.054482 -0.016489
H  -0.000000 -0.864661  0.329301
2
Frame 202   E = -75.33225305 Ha
O   0.000000  0.054441 -0.016070
H  -0.000000 -0.864016  0.322645
2
Frame 203   E = -75.33251096 Ha
O   0.000000  0.054335 -0.015631
H  -0.000000 -0.862331  0.315677
2
Frame 204   E = -75.33279531 Ha
O   0.000000  0.054170 -0.015175
H  -0.000000 -0.859705  0.308438
2
Frame 205   E = -75.33307065 Ha
O   0.000000  0.053953 -0.014705
H  -0.000000 -0.856265  0.300981
2
Frame 206   E = -75.33330019 Ha
O   0.000000  0.053695 -0.014225
H  -0.000000 -0.852169  0.293362
2
Frame 207   E = -75.33345000 Ha
O   0.000000  0.053407 -0.013739
H  -0.000000 -0.847601  0.285648
2
Frame 208   E = -75.33349399 Ha
O   0.000000  0.053103 -0.013251
H  -0.000000 -0.842771  0.277908
2
Frame 209   E = -75.33341873 Ha
O   0.000000  0.052796 -0.012766
H  -0.000000 -0.837909  0.270215
2
Frame 210   E = -75.33322748 Ha
O   0.000000  0.052503 -0.012290
H  -0.000000 -0.833255  0.262646
2
Frame 211   E = -75.33294215 Ha
O   0.000000  0.052239 -0.011825
H  -0.000000 -0.829058  0.255271
2
Frame 212   E = -75.33260202 Ha
O   0.000000  0.052018 -0.011377
H  -0.000000 -0.825555  0.248157
2
Frame 213   E = -75.33225870 Ha
O   0.000000  0.051855 -0.010948
H  -0.000000 -0.822966  0.241362
2
Frame 214   E = -75.33196747 Ha
O   0.000000  0.051761 -0.010543
H  -0.000000 -0.821476  0.234930
2
Frame 215   E = -75.33177660 Ha
O   0.000000  0.051745 -0.010163
H  -0.000000 -0.821224  0.228891
2
Frame 216   E = -75.33171708 Ha
O   0.000000  0.051812 -0.009808
H  -0.000000 -0.822293  0.223259
2
Frame 217   E = -75.33179569 Ha
O   0.000000  0.051964 -0.009478
H  -0.000000 -0.824703  0.218029
2
Frame 218   E = -75.33199341 Ha
O   0.000000  0.052198 -0.009173
H  -0.000000 -0.828408  0.213180
2
Frame 219   E = -75.33226971 Ha
O   0.000000  0.052506 -0.008889
H  -0.000000 -0.833301  0.208678
2
Frame 220   E = -75.33257143 Ha
O   0.000000  0.052879 -0.008624
H  -0.000000 -0.839221  0.204477
2
Frame 221   E = -75.33284363 Ha
O   0.000000  0.053304 -0.008375
H  -0.000000 -0.845966  0.200524
2
Frame 222   E = -75.33303967 Ha
O   0.000000  0.053766 -0.008138
H  -0.000000 -0.853302  0.196763
2
Frame 223   E = -75.33312834 Ha
O   0.000000  0.054250 -0.007910
H  -0.000000 -0.860982  0.193138
2
Frame 224   E = -75.33309713 Ha
O   0.000000  0.054740 -0.007687
H  -0.000000 -0.868753  0.189594
2
Frame 225   E = -75.33295182 Ha
O   0.000000  0.055220 -0.007465
H  -0.000000 -0.876371  0.186082
2
Frame 226   E = -75.33271339 Ha
O   0.000000  0.055676 -0.007243
H  -0.000000 -0.883606  0.182559
2
Frame 227   E = -75.33241335 Ha
O   0.000000  0.056094 -0.007018
H  -0.000000 -0.890252  0.178988
2
Frame 228   E = -75.33208864 Ha
O   0.000000  0.056464 -0.006789
H  -0.000000 -0.896127  0.175342
2
Frame 229   E = -75.33177680 Ha
O   0.000000  0.056777 -0.006553
H  -0.000000 -0.901079  0.171597
2
Frame 230   E = -75.33151196 Ha
O   0.000000  0.057023 -0.006309
H  -0.000000 -0.904988  0.167738
2
Frame 231   E = -75.33132164 Ha
O   0.000000  0.057198 -0.006059
H  -0.000000 -0.907764  0.163755
2
Frame 232   E = -75.33122458 Ha
O   0.000000  0.057298 -0.005800
H  -0.000000 -0.909348  0.159647
2
Frame 233   E = -75.33122933 Ha
O   0.000000  0.057321 -0.005533
H  -0.000000 -0.909714  0.155413
2
Frame 234   E = -75.33133363 Ha
O   0.000000  0.057267 -0.005259
H  -0.000000 -0.908869  0.151062
2
Frame 235   E = -75.33152452 Ha
O   0.000000  0.057140 -0.004978
H  -0.000000 -0.906852  0.146604
2
Frame 236   E = -75.33177914 Ha
O   0.000000  0.056944 -0.004691
H  -0.000000 -0.903732  0.142055
2
Frame 237   E = -75.33206641 Ha
O   0.000000  0.056684 -0.004400
H  -0.000000 -0.899613  0.137433
2
Frame 238   E = -75.33234964 Ha
O   0.000000  0.056370 -0.004106
H  -0.000000 -0.894631  0.132761
2
Frame 239   E = -75.33259008 Ha
O   0.000000  0.056013 -0.003810
H  -0.000000 -0.888954  0.128064
2
Frame 240   E = -75.33275147 Ha
O   0.000000  0.055623 -0.003514
H  -0.000000 -0.882778  0.123369
2
Frame 241   E = -75.33280530 Ha
O   0.000000  0.055217 -0.003220
H  -0.000000 -0.876327  0.118705
2
Frame 242   E = -75.33273612 Ha
O   0.000000  0.054809 -0.002930
H  -0.000000 -0.869848  0.114102
2
Frame 243   E = -75.33254596 Ha
O   0.000000  0.054415 -0.002646
H  -0.000000 -0.863598  0.109590
2
Frame 244   E = -75.33225663 Ha
O   0.000000  0.054052 -0.002369
H  -0.000000 -0.857842  0.105196
2
Frame 245   E = -75.33190869 Ha
O   0.000000  0.053737 -0.002101
H  -0.000000 -0.852837  0.100945
2
Frame 246   E = -75.33155616 Ha
O   0.000000  0.053483 -0.001843
H  -0.000000 -0.848815  0.096858
2
Frame 247   E = -75.33125744 Ha
O   0.000000  0.053305 -0.001597
H  -0.000000 -0.845976  0.092950
2
Frame 248   E = -75.33106385 Ha
O   0.000000  0.053209 -0.001363
H  -0.000000 -0.844468  0.089229
2
Frame 249   E = -75.33100857 Ha
O   0.000000  0.053204 -0.001140
H  -0.000000 -0.844377  0.085699
2
Frame 250   E = -75.33109908 Ha
O   0.000000  0.053289 -0.000929
H  -0.000000 -0.845724  0.082354
2
Frame 251   E = -75.33131542 Ha
O   0.000000  0.053461 -0.000730
H  -0.000000 -0.848458  0.079185
2
Frame 252   E = -75.33161475 Ha
O   0.000000  0.053713 -0.000540
H  -0.000000 -0.852465  0.076177
2
Frame 253   E = -75.33194091 Ha
O   0.000000  0.054035 -0.000360
H  -0.000000 -0.857571  0.073313
2
Frame 254   E = -75.33223604 Ha
O   0.000000  0.054413 -0.000187
H  -0.000000 -0.863561  0.070574
2
Frame 255   E = -75.33245134 Ha
O   0.000000  0.054830 -0.000021
H  -0.000000 -0.870187  0.067940
2
Frame 256   E = -75.33255457 Ha
O   0.000000  0.055271  0.000139
H  -0.000000 -0.877187  0.065393
2
Frame 257   E = -75.33253337 Ha
O   0.000000  0.055719  0.000295
H  -0.000000 -0.884296  0.062918
2
Frame 258   E = -75.33239463 Ha
O   0.000000  0.056158  0.000448
H  -0.000000 -0.891257  0.060499
2
Frame 259   E = -75.33216107 Ha
O   0.000000  0.056572  0.000597
H  -0.000000 -0.897831  0.058126
2
Frame 260   E = -75.33186614 Ha
O   0.000000  0.056948  0.000744
H  -0.000000 -0.903805  0.055791
2
Frame 261   E = -75.33154857 Ha
O   0.000000  0.057275  0.000889
H  -0.000000 -0.908993  0.053488
2
Frame 262   E = -75.33124730 Ha
O   0.000000  0.057543  0.001033
H  -0.000000 -0.913239  0.051213
2
Frame 263   E = -75.33099720 Ha
O   0.000000  0.057743  0.001174
H  -0.000000 -0.916421  0.048966
2
Frame 264   E = -75.33082588 Ha
O   0.000000  0.057871  0.001314
H  -0.000000 -0.918452  0.046745
2
Frame 265   E = -75.33075142 Ha
O   0.000000  0.057923  0.001452
H  -0.000000 -0.919276  0.044552
2
Frame 266   E = -75.33078102 Ha
O   0.000000  0.057898  0.001589
H  -0.000000 -0.918872  0.042390
2
Frame 267   E = -75.33091048 Ha
O   0.000000  0.057796  0.001723
H  -0.000000 -0.917251  0.040262
2
Frame 268   E = -75.33112446 Ha
O   0.000000  0.057620  0.001854
H  -0.000000 -0.914462  0.038172
2
Frame 269   E = -75.33139756 Ha
O   0.000000  0.057375  0.001983
H  -0.000000 -0.910583  0.036123
2
Frame 270   E = -75.33169625 Ha
O   0.000000  0.057070  0.002110
H  -0.000000 -0.905729  0.034119
2
Frame 271   E = -75.33198191 Ha
O   0.000000  0.056711  0.002233
H  -0.000000 -0.900047  0.032166
2
Frame 272   E = -75.33221476 Ha
O   0.000000  0.056313  0.002352
H  -0.000000 -0.893716  0.030267
2
Frame 273   E = -75.33235894 Ha
O   0.000000  0.055886  0.002468
H  -0.000000 -0.886947  0.028426
2
Frame 274   E = -75.33238797 Ha
O   0.000000  0.055447  0.002581
H  -0.000000 -0.879975  0.026648
2
Frame 275   E = -75.33229027 Ha
O   0.000000  0.055011  0.002688
H  -0.000000 -0.873057  0.024934
2
Frame 276   E = -75.33207325 Ha
O   0.000000  0.054595  0.002792
H  -0.000000 -0.866459  0.023288
2
Frame 277   E = -75.33176487 Ha
O   0.000000  0.054217  0.002891
H  -0.000000 -0.860452  0.021712
2
Frame 278   E = -75.33141145 Ha
O   0.000000  0.053891  0.002986
H  -0.000000 -0.855291  0.020207
2
Frame 279   E = -75.33107091 Ha
O   0.000000  0.053634  0.003077
H  -0.000000 -0.851208  0.018774
2
Frame 280   E = -75.33080247 Ha
O   0.000000  0.053457  0.003163
H  -0.000000 -0.848390  0.017410
2
Frame 281   E = -75.33065453 Ha
O   0.000000  0.053367  0.003244
H  -0.000000 -0.846972  0.016116
2
Frame 282   E = -75.33065392 Ha
O   0.000000  0.053370  0.003321
H  -0.000000 -0.847021  0.014889
2
Frame 283   E = -75.33079971 Ha
O   0.000000  0.053466  0.003395
H  -0.000000 -0.848536  0.013727
2
Frame 284   E = -75.33106343 Ha
O   0.000000  0.053649  0.003464
H  -0.000000 -0.851444  0.012628
2
Frame 285   E = -75.33139559 Ha
O   0.000000  0.053911  0.003529
H  -0.000000 -0.855607  0.011590
2
Frame 286   E = -75.33173667 Ha
O   0.000000  0.054241  0.003591
H  -0.000000 -0.860834  0.010613
2
Frame 287   E = -75.33202913 Ha
O   0.000000  0.054622  0.003649
H  -0.000000 -0.866893  0.009696
2
Frame 288   E = -75.33222770 Ha
O   0.000000  0.055040  0.003703
H  -0.000000 -0.873524  0.008839
2
Frame 289   E = -75.33230572 Ha
O   0.000000  0.055477  0.003753
H  -0.000000 -0.880459  0.008043
2
Frame 290   E = -75.33225718 Ha
O   0.000000  0.055917  0.003799
H  -0.000000 -0.887430  0.007312
2
Frame 291   E = -75.33209497 Ha
O   0.000000  0.056342  0.003841
H  -0.000000 -0.894182  0.006648
2
Frame 292   E = -75.33184652 Ha
O   0.000000  0.056739  0.003878
H  -0.000000 -0.900479  0.006053
2
Frame 293   E = -75.33154841 Ha
O   0.000000  0.057094  0.003911
H  -0.000000 -0.906115  0.005532
2
Frame 294   E = -75.33124068 Ha
O   0.000000  0.057396  0.003939
H  -0.000000 -0.910910  0.005086
2
Frame 295   E = -75.33096198 Ha
O   0.000000  0.057636  0.003962
H  -0.000000 -0.914720  0.004719
2
Frame 296   E = -75.33074545 Ha
O   0.000000  0.057807  0.003980
H  -0.000000 -0.917434  0.004433
2
Frame 297   E = -75.33061589 Ha
O   0.000000  0.057904  0.003993
H  -0.000000 -0.918973  0.004229
2
Frame 298   E = -75.33058773 Ha
O   0.000000  0.057924  0.004001
H  -0.000000 -0.919296  0.004110
2
Frame 299   E = -75.33066406 Ha
O   0.000000  0.057867  0.004003
H  -0.000000 -0.918391  0.004074
2
Frame 300   E = -75.33083635 Ha
O   0.000000  0.057735  0.004000
H  -0.000000 -0.916286  0.004122
2
Frame 301   E = -75.33108510 Ha
O   0.000000  0.057530  0.003992
H  -0.000000 -0.913039  0.004253
2
Frame 302   E = -75.33138125 Ha
O   0.000000  0.057259  0.003978
H  -0.000000 -0.908744  0.004464
2
Frame 303   E = -75.33168862 Ha
O   0.000000  0.056931  0.003960
H  -0.000000 -0.903528  0.004754
2
Frame 304   E = -75.33196731 Ha
O   0.000000  0.056554  0.003937
H  -0.000000 -0.897552  0.005119
2
Frame 305   E = -75.33217824 Ha
O   0.000000  0.056142  0.003909
H  -0.000000 -0.891009  0.005556
2
Frame 306   E = -75.33228842 Ha
O   0.000000  0.055708  0.003878
H  -0.000000 -0.884121  0.006062
2
Frame 307   E = -75.33227660 Ha
O   0.000000  0.055268  0.003842
H  -0.000000 -0.877131  0.006633
2
Frame 308   E = -75.33213843 Ha
O   0.000000  0.054837  0.003802
H  -0.000000 -0.870303  0.007267
2
Frame 309   E = -75.33188967 Ha
O   0.000000  0.054434  0.003758
H  -0.000000 -0.863908  0.007961
2
Frame 310   E = -75.33156631 Ha
O   0.000000  0.054075  0.003711
H  -0.000000 -0.858211  0.008714
2
Frame 311   E = -75.33122056 Ha
O   0.000000  0.053776  0.003659
H  -0.000000 -0.853460  0.009524
2
Frame 312   E = -75.33091239 Ha
O   0.000000  0.053550  0.003605
H  -0.000000 -0.849871  0.010391
2
Frame 313   E = -75.33069818 Ha
O   0.000000  0.053408  0.003547
H  -0.000000 -0.847611  0.011315
2
Frame 314   E = -75.33061866 Ha
O   0.000000  0.053356  0.003485
H  -0.000000 -0.846788  0.012299
2
Frame 315   E = -75.33068978 Ha
O   0.000000  0.053397  0.003419
H  -0.000000 -0.847442  0.013343
2
Frame 316   E = -75.33089890 Ha
O   0.000000  0.053529  0.003349
H  -0.000000 -0.849541  0.014449
2
Frame 317   E = -75.33120782 Ha
O   0.000000  0.053746  0.003275
H  -0.000000 -0.852986  0.015620
2
Frame 318   E = -75.33156146 Ha
O   0.000000  0.054038  0.003197
H  -0.000000 -0.857614  0.016856
2
Frame 319   E = -75.33189965 Ha
O   0.000000  0.054391  0.003115
H  -0.000000 -0.863215  0.018159
2
Frame 320   E = -75.33216881 Ha
O   0.000000  0.054790  0.003029
H  -0.000000 -0.869545  0.019529
2
Frame 321   E = -75.33233073 Ha
O   0.000000  0.055218  0.002939
H  -0.000000 -0.876340  0.020965
2
Frame 322   E = -75.33236715 Ha
O   0.000000  0.055658  0.002844
H  -0.000000 -0.883328  0.022466
2
Frame 323   E = -75.33228007 Ha
O   0.000000  0.056094  0.002745
H  -0.000000 -0.890246  0.024032
2
Frame 324   E = -75.33208882 Ha
O   0.000000  0.056510  0.002643
H  -0.000000 -0.896846  0.025660
2
Frame 325   E = -75.33182510 Ha
O   0.000000  0.056892  0.002536
H  -0.000000 -0.902905  0.027347
2
Frame 326   E = -75.33152736 Ha
O   0.000000  0.057227  0.002427
H  -0.000000 -0.908227  0.029092
2
Frame 327   E = -75.33123545 Ha
O   0.000000  0.057505  0.002313
H  -0.000000 -0.912646  0.030890
2
Frame 328   E = -75.33098607 Ha
O   0.000000  0.057719  0.002197
H  -0.000000 -0.916032  0.032739
2
Frame 329   E = -75.33080920 Ha
O   0.000000  0.057861  0.002077
H  -0.000000 -0.918285  0.034635
2
Frame 330   E = -75.33072567 Ha
O   0.000000  0.057927  0.001955
H  -0.000000 -0.919343  0.036576
2
Frame 331   E = -75.33074555 Ha
O   0.000000  0.057917  0.001830
H  -0.000000 -0.919175  0.038558
2
Frame 332   E = -75.33086753 Ha
O   0.000000  0.057829  0.001703
H  -0.000000 -0.917785  0.040578
2
Frame 333   E = -75.33107904 Ha
O   0.000000  0.057667  0.001573
H  -0.000000 -0.915210  0.042636
2
Frame 334   E = -75.33135711 Ha
O   0.000000  0.057435  0.001441
H  -0.000000 -0.911522  0.044729
2
Frame 335   E = -75.33167020 Ha
O   0.000000  0.057139  0.001307
H  -0.000000 -0.906826  0.046858
2
Frame 336   E = -75.33198091 Ha
O   0.000000  0.056788  0.001171
H  -0.000000 -0.901260  0.049024
2
Frame 337   E = -75.33224969 Ha
O   0.000000  0.056393  0.001032
H  -0.000000 -0.894994  0.051231
2
Frame 338   E = -75.33243961 Ha
O   0.000000  0.055967  0.000890
H  -0.000000 -0.888230  0.053483
2
Frame 339   E = -75.33252168 Ha
O   0.000000  0.055524  0.000744
H  -0.000000 -0.881194  0.055790
2
Frame 340   E = -75.33248029 Ha
O   0.000000  0.055079  0.000595
H  -0.000000 -0.874136  0.058160
2
Frame 341   E = -75.33231766 Ha
O   0.000000  0.054649  0.000441
H  -0.000000 -0.867317  0.060606
2
Frame 342   E = -75.33205611 Ha
O   0.000000  0.054251  0.000281
H  -0.000000 -0.861005  0.063144
2
Frame 343   E = -75.33173680 Ha
O   0.000000  0.053902  0.000114
H  -0.000000 -0.855456  0.065788
2
Frame 344   E = -75.33141435 Ha
O   0.000000  0.053615 -0.000060
H  -0.000000 -0.850905  0.068557
2
Frame 345   E = -75.33114746 Ha
O   0.000000  0.053404 -0.000243
H  -0.000000 -0.847550  0.071465
2
Frame 346   E = -75.33098733 Ha
O   0.000000  0.053277 -0.000436
H  -0.000000 -0.845536  0.074529
2
Frame 347   E = -75.33096665 Ha
O   0.000000  0.053240 -0.000640
H  -0.000000 -0.844948  0.077758
2
Frame 348   E = -75.33109208 Ha
O   0.000000  0.053294 -0.000854
H  -0.000000 -0.845802  0.081159
2
Frame 349   E = -75.33134281 Ha
O   0.000000  0.053435 -0.001080
H  -0.000000 -0.848045  0.084735
2
Frame 350   E = -75.33167530 Ha
O   0.000000  0.053656 -0.001316
H  -0.000000 -0.851558  0.088480
2
Frame 351   E = -75.33203306 Ha
O   0.000000  0.053947 -0.001562
H  -0.000000 -0.856165  0.092385
2
Frame 352   E = -75.33235829 Ha
O   0.000000  0.054292 -0.001817
H  -0.000000 -0.861649  0.096433
2
Frame 353   E = -75.33260254 Ha
O   0.000000  0.054677 -0.002079
H  -0.000000 -0.867762  0.100605
2
Frame 354   E = -75.33273401 Ha
O   0.000000  0.055085 -0.002349
H  -0.000000 -0.874241  0.104877
2
Frame 355   E = -75.33274079 Ha
O   0.000000  0.055500 -0.002623
H  -0.000000 -0.880822  0.109224
2
Frame 356   E = -75.33262999 Ha
O   0.000000  0.055905 -0.002899
H  -0.000000 -0.887251  0.113619
2
Frame 357   E = -75.33242430 Ha
O   0.000000  0.056286 -0.003178
H  -0.000000 -0.893291  0.118037
2
Frame 358   E = -75.33215690 Ha
O   0.000000  0.056629 -0.003456
H  -0.000000 -0.898731  0.122452
2
Frame 359   E = -75.33186605 Ha
O   0.000000  0.056922 -0.003733
H  -0.000000 -0.903388  0.126841
2
Frame 360   E = -75.33159012 Ha
O   0.000000  0.057156 -0.004006
H  -0.000000 -0.907108  0.131181
2
Frame 361   E = -75.33136351 Ha
O   0.000000  0.057324 -0.004275
H  -0.000000 -0.909771  0.135455
2
Frame 362   E = -75.33121352 Ha
O   0.000000  0.057420 -0.004539
H  -0.000000 -0.911291  0.139646
2
Frame 363   E = -75.33115820 Ha
O   0.000000  0.057440 -0.004798
H  -0.000000 -0.911613  0.143742
2
Frame 364   E = -75.33120517 Ha
O   0.000000  0.057384 -0.005049
H  -0.000000 -0.910713  0.147736
2
Frame 365   E = -75.33135114 Ha
O   0.000000  0.057251 -0.005294
H  -0.000000 -0.908604  0.151622
2
Frame 366   E = -75.33158215 Ha
O   0.000000  0.057044 -0.005532
H  -0.000000 -0.905326  0.155402
2
Frame 367   E = -75.33187461 Ha
O   0.000000  0.056769 -0.005764
H  -0.000000 -0.900955  0.159080
2
Frame 368   E = -75.33219713 Ha
O   0.000000  0.056431 -0.005990
H  -0.000000 -0.895598  0.162668
2
Frame 369   E = -75.33251319 Ha
O   0.000000  0.056040 -0.006211
H  -0.000000 -0.889391  0.166183
2
Frame 370   E = -75.33278482 Ha
O   0.000000  0.055606 -0.006430
H  -0.000000 -0.882504  0.169647
2
Frame 371   E = -75.33297711 Ha
O   0.000000  0.055142 -0.006647
H  -0.000000 -0.875132  0.173091
2
Frame 372   E = -75.33306327 Ha
O   0.000000  0.054660 -0.006865
H  -0.000000 -0.867496  0.176551
2
Frame 373   E = -75.33302970 Ha
O   0.000000  0.054178 -0.007086
H  -0.000000 -0.859836  0.180070
2
Frame 374   E = -75.33287995 Ha
O   0.000000  0.053709 -0.007315
H  -0.000000 -0.852403  0.183695
2
Frame 375   E = -75.33263666 Ha
O   0.000000  0.053271 -0.007553
H  -0.000000 -0.845450  0.187478
2
Frame 376   E = -75.33234003 Ha
O   0.000000  0.052879 -0.007805
H  -0.000000 -0.839222  0.191472
2
Frame 377   E = -75.33204250 Ha
O   0.000000  0.052546 -0.008073
H  -0.000000 -0.833939  0.195726
2
Frame 378   E = -75.33179977 Ha
O   0.000000  0.052284 -0.008360
H  -0.000000 -0.829784  0.200289
2
Frame 379   E = -75.33165991 Ha
O   0.000000  0.052102 -0.008670
H  -0.000000 -0.826893  0.205196
2
Frame 380   E = -75.33165312 Ha
O   0.000000  0.052004 -0.009002
H  -0.000000 -0.825341  0.210475
2
Frame 381   E = -75.33178496 Ha
O   0.000000  0.051992 -0.009359
H  -0.000000 -0.825140  0.216136
2
Frame 382   E = -75.33203511 Ha
O   0.000000  0.052061 -0.009740
H  -0.000000 -0.826236  0.222176
2
Frame 383   E = -75.33236202 Ha
O   0.000000  0.052204 -0.010143
H  -0.000000 -0.828514  0.228575
2
Frame 384   E = -75.33271199 Ha
O   0.000000  0.052412 -0.010566
H  -0.000000 -0.831809  0.235298
2
Frame 385   E = -75.33303012 Ha
O   0.000000  0.052670 -0.011007
H  -0.000000 -0.835913  0.242296
2
Frame 386   E = -75.33327024 Ha
O   0.000000  0.052965 -0.011462
H  -0.000000 -0.840593  0.249510
2
Frame 387   E = -75.33340182 Ha
O   0.000000  0.053281 -0.011926
H  -0.000000 -0.845602  0.256877
2
Frame 388   E = -75.33341294 Ha
O   0.000000  0.053602 -0.012395
H  -0.000000 -0.850693  0.264326
2
Frame 389   E = -75.33330975 Ha
O   0.000000  0.053913 -0.012866
H  -0.000000 -0.855626  0.271788
2
Frame 390   E = -75.33311320 Ha
O   0.000000  0.054200 -0.013332
H  -0.000000 -0.860181  0.279196
2
Frame 391   E = -75.33285438 Ha
O   0.000000  0.054450 -0.013792
H  -0.000000 -0.864159  0.286487
2
Frame 392   E = -75.33256956 Ha
O   0.000000  0.054654 -0.014240
H  -0.000000 -0.867387  0.293601
2
Frame 393   E = -75.33229547 Ha
O   0.000000  0.054801 -0.014674
H  -0.000000 -0.869722  0.300489
2
Frame 394   E = -75.33206546 Ha
O   0.000000  0.054885 -0.015091
H  -0.000000 -0.871052  0.307107
2
Frame 395   E = -75.33190656 Ha
O   0.000000  0.054900 -0.015489
H  -0.000000 -0.871291  0.313419
2
Frame 396   E = -75.33183744 Ha
O   0.000000  0.054843 -0.015865
H  -0.000000 -0.870388  0.319399
2
Frame 397   E = -75.33186716 Ha
O   0.000000  0.054712 -0.016220
H  -0.000000 -0.868317  0.325030
2
Frame 398   E = -75.33199466 Ha
O   0.000000  0.054509 -0.016553
H  -0.000000 -0.865086  0.330306
2
Frame 399   E = -75.33220892 Ha
O   0.000000  0.054234 -0.016863
H  -0.000000 -0.860727  0.335229
2
Frame 400   E = -75.33248967 Ha
O   0.000000  0.053892 -0.017152
H  -0.000000 -0.855305  0.339813
2
Frame 401   E = -75.33280890 Ha
O   0.000000  0.053489 -0.017421
H  -0.000000 -0.848910  0.344084
2
Frame 402   E = -75.33313308 Ha
O   0.000000  0.053033 -0.017673
H  -0.000000 -0.841663  0.348080
2
Frame 403   E = -75.33342626 Ha
O   0.000000  0.052532 -0.017910
H  -0.000000 -0.833710  0.351851
2
Frame 404   E = -75.33365395 Ha
O   0.000000  0.051997 -0.018138
H  -0.000000 -0.825222  0.355458
2
Frame 405   E = -75.33378766 Ha
O   0.000000  0.051441 -0.018359
H  -0.000000 -0.816393  0.358977
2
Frame 406   E = -75.33380957 Ha
O   0.000000  0.050876 -0.018581
H  -0.000000 -0.807436  0.362494
2
Frame 407   E = -75.33371672 Ha
O   0.000000  0.050318 -0.018808
H  -0.000000 -0.798573  0.366103
2
Frame 408   E = -75.33352351 Ha
O   0.000000  0.049780 -0.019048
H  -0.000000 -0.790033  0.369905
2
Frame 409   E = -75.33326158 Ha
O   0.000000  0.049276 -0.019306
H  -0.000000 -0.782037  0.374002
2
Frame 410   E = -75.33297633 Ha
O   0.000000  0.048819 -0.019589
H  -0.000000 -0.774791  0.378495
2
Frame 411   E = -75.33271983 Ha
O   0.000000  0.048421 -0.019903
H  -0.000000 -0.768470  0.383474
2
Frame 412   E = -75.33254134 Ha
O   0.000000  0.048090 -0.020252
H  -0.000000 -0.763212  0.389014
2
Frame 413   E = -75.33247728 Ha
O   0.000000  0.047831 -0.020640
H  -0.000000 -0.759104  0.395169
2
Frame 414   E = -75.33254342 Ha
O   0.000000  0.047646 -0.021068
H  -0.000000 -0.756178  0.401967
2
Frame 415   E = -75.33273133 Ha
O   0.000000  0.047535 -0.021537
H  -0.000000 -0.754409  0.409408
2
Frame 416   E = -75.33301034 Ha
O   0.000000  0.047491 -0.022044
H  -0.000000 -0.753717  0.417461
2
Frame 417   E = -75.33333421 Ha
O   0.000000  0.047508 -0.022587
H  -0.000000 -0.753975  0.426069
2
Frame 418   E = -75.33365078 Ha
O   0.000000  0.047573 -0.023159
H  -0.000000 -0.755014  0.435150
2
Frame 419   E = -75.33391178 Ha
O   0.000000  0.047676 -0.023754
H  -0.000000 -0.756641  0.444601
2
Frame 420   E = -75.33408074 Ha
O   0.000000  0.047802 -0.024366
H  -0.000000 -0.758643  0.454308
2
Frame 421   E = -75.33413754 Ha
O   0.000000  0.047938 -0.024986
H  -0.000000 -0.760807  0.464148
2
Frame 422   E = -75.33407951 Ha
O   0.000000  0.048071 -0.025607
H  -0.000000 -0.762920  0.473998
2
Frame 423   E = -75.33391956 Ha
O   0.000000  0.048189 -0.026220
H  -0.000000 -0.764785  0.483734
2
Frame 424   E = -75.33368254 Ha
O   0.000000  0.048279 -0.026819
H  -0.000000 -0.766222  0.493242
2
Frame 425   E = -75.33340066 Ha
O   0.000000  0.048333 -0.027397
H  -0.000000 -0.767072  0.502417
2
Frame 426   E = -75.33310901 Ha
O   0.000000  0.048341 -0.027948
H  -0.000000 -0.767202  0.511165
2
Frame 427   E = -75.33284153 Ha
O   0.000000  0.048297 -0.028468
H  -0.000000 -0.766502  0.519407
2
Frame 428   E = -75.33262786 Ha
O   0.000000  0.048195 -0.028951
H  -0.000000 -0.764890  0.527077
2
Frame 429   E = -75.33249093 Ha
O   0.000000  0.048033 -0.029395
H  -0.000000 -0.762309  0.534124
2
Frame 430   E = -75.33244539 Ha
O   0.000000  0.047807 -0.029798
H  -0.000000 -0.758724  0.540514
2
Frame 431   E = -75.33249674 Ha
O   0.000000  0.047517 -0.030158
H  -0.000000 -0.754130  0.546228
2
Frame 432   E = -75.33264098 Ha
O   0.000000  0.047165 -0.030475
H  -0.000000 -0.748541  0.551264
2
Frame 433   E = -75.33286492 Ha
O   0.000000  0.046753 -0.030751
H  -0.000000 -0.741998  0.555638
2
Frame 434   E = -75.33314703 Ha
O   0.000000  0.046285 -0.030987
H  -0.000000 -0.734564  0.559381
2
Frame 435   E = -75.33345892 Ha
O   0.000000  0.045765 -0.031186
H  -0.000000 -0.726324  0.562546
2
Frame 436   E = -75.33376759 Ha
O   0.000000  0.045202 -0.031353
H  -0.000000 -0.717387  0.565203
2
Frame 437   E = -75.33403846 Ha
O   0.000000  0.044603 -0.031494
H  -0.000000 -0.707881  0.567441
2
Frame 438   E = -75.33423915 Ha
O   0.000000  0.043978 -0.031616
H  -0.000000 -0.697955  0.569368
2
Frame 439   E = -75.33434379 Ha
O   0.000000  0.043336 -0.031725
H  -0.000000 -0.687774  0.571108
2
Frame 440   E = -75.33433744 Ha
O   0.000000  0.042690 -0.031832
H  -0.000000 -0.677514  0.572801
2
Frame 441   E = -75.33421979 Ha
O   0.000000  0.042050 -0.031945
H  -0.000000 -0.667360  0.574600
2
Frame 442   E = -75.33400730 Ha
O   0.000000  0.041429 -0.032075
H  -0.000000 -0.657498  0.576661
2
Frame 443   E = -75.33373261 Ha
O   0.000000  0.040837 -0.032232
H  -0.000000 -0.648105  0.579143
2
Frame 444   E = -75.33344074 Ha
O   0.000000  0.040285 -0.032424
H  -0.000000 -0.639343  0.582194
2
Frame 445   E = -75.33318201 Ha
O   0.000000  0.039781 -0.032660
H  -0.000000 -0.631347  0.585945
2
Frame 446   E = -75.33300280 Ha
O   0.000000  0.039332 -0.032948
H  -0.000000 -0.624220  0.590504
2
Frame 447   E = -75.33293619 Ha
O   0.000000  0.038941 -0.033290
H  -0.000000 -0.618022  0.595940
2
Frame 448   E = -75.33299485 Ha
O   0.000000  0.038610 -0.033690
H  -0.000000 -0.612771  0.602286
2
Frame 449   E = -75.33316822 Ha
O   0.000000  0.038337 -0.034146
H  -0.000000 -0.608437  0.609530
2
Frame 450   E = -75.33342488 Ha
O   0.000000  0.038118 -0.034656
H  -0.000000 -0.604952  0.617617
2
Frame 451   E = -75.33371928 Ha
O   0.000000  0.037945 -0.035213
H  -0.000000 -0.602207  0.626456
2
Frame 452   E = -75.33400108 Ha
O   0.000000  0.037810 -0.035809
H  -0.000000 -0.600067  0.635917
2
Frame 453   E = -75.33422444 Ha
O   0.000000  0.037704 -0.036435
H  -0.000000 -0.598379  0.645848
2
Frame 454   E = -75.33435535 Ha
O   0.000000  0.037615 -0.037079
H  -0.000000 -0.596976  0.656079
2
Frame 455   E = -75.33437577 Ha
O   0.000000  0.037535 -0.037732
H  -0.000000 -0.595695  0.666433
2
Frame 456   E = -75.33428446 Ha
O   0.000000  0.037451 -0.038381
H  -0.000000 -0.594373  0.676732
2
Frame 457   E = -75.33409508 Ha
O   0.000000  0.037356 -0.039015
H  -0.000000 -0.592864  0.686803
2
Frame 458   E = -75.33383262 Ha
O   0.000000  0.037241 -0.039625
H  -0.000000 -0.591033  0.696487
2
Frame 459   E = -75.33352896 Ha
O   0.000000  0.037098 -0.040202
H  -0.000000 -0.588764  0.705637
2
Frame 460   E = -75.33321857 Ha
O   0.000000  0.036921 -0.040737
H  -0.000000 -0.585962  0.714129
2
Frame 461   E = -75.33293469 Ha
O   0.000000  0.036706 -0.041224
H  -0.000000 -0.582549  0.721854
2
Frame 462   E = -75.33270619 Ha
O   0.000000  0.036449 -0.041657
H  -0.000000 -0.578469  0.728726
2
Frame 463   E = -75.33255535 Ha
O   0.000000  0.036148 -0.042032
H  -0.000000 -0.573685  0.734683
2
Frame 464   E = -75.33249621 Ha
O   0.000000  0.035801 -0.042347
H  -0.000000 -0.568177  0.739683
2
Frame 465   E = -75.33253375 Ha
O   0.000000  0.035408 -0.042601
H  -0.000000 -0.561945  0.743706
2
Frame 466   E = -75.33266352 Ha
O   0.000000  0.034971 -0.042793
H  -0.000000 -0.555007  0.746757
2
Frame 467   E = -75.33287189 Ha
O   0.000000  0.034491 -0.042926
H  -0.000000 -0.547396  0.748865
2
Frame 468   E = -75.33313689 Ha
O   0.000000  0.033973 -0.043002
H  -0.000000 -0.539164  0.750081
2
Frame 469   E = -75.33342969 Ha
O   0.000000  0.033419 -0.043028
H  -0.000000 -0.530378  0.750482
2
Frame 470   E = -75.33371687 Ha
O   0.000000  0.032836 -0.043008
H  -0.000000 -0.521121  0.750171
2
Frame 471   E = -75.33396349 Ha
O   0.000000  0.032229 -0.042951
H  -0.000000 -0.511489  0.749273
2
Frame 472   E = -75.33413696 Ha
O   0.000000  0.031605 -0.042867
H  -0.000000 -0.501593  0.747940
2
Frame 473   E = -75.33421147 Ha
O   0.000000  0.030973 -0.042767
H  -0.000000 -0.491554  0.746342
2
Frame 474   E = -75.33417252 Ha
O   0.000000  0.030339 -0.042661
H  -0.000000 -0.481499  0.744671
2
Frame 475   E = -75.33402071 Ha
O   0.000000  0.029713 -0.042564
H  -0.000000 -0.471562  0.743129
2
Frame 476   E = -75.33377385 Ha
O   0.000000  0.029103 -0.042489
H  -0.000000 -0.461874  0.741926
2
Frame 477   E = -75.33346629 Ha
O   0.000000  0.028516 -0.042447
H  -0.000000 -0.452558  0.741267
2
Frame 478   E = -75.33314480 Ha
O   0.000000  0.027959 -0.042452
H  -0.000000 -0.443726  0.741346
2
Frame 479   E = -75.33286115 Ha
O   0.000000  0.027439 -0.042514
H  -0.000000 -0.435469  0.742329
2
Frame 480   E = -75.33266251 Ha
O   0.000000  0.026959 -0.042641
H  -0.000000 -0.427853  0.744347
2
Frame 481   E = -75.33258173 Ha
O   0.000000  0.026522 -0.042839
H  -0.000000 -0.420914  0.747484
2
Frame 482   E = -75.33263029 Ha
O   0.000000  0.026128 -0.043109
H  -0.000000 -0.414658  0.751773
2
Frame 483   E = -75.33279559 Ha
O   0.000000  0.025775 -0.043450
H  -0.000000 -0.409060  0.757190
2
Frame 484   E = -75.33304387 Ha
O   0.000000  0.025460 -0.043858
H  -0.000000 -0.404065  0.763657
2
Frame 485   E = -75.33332742 Ha
O   0.000000  0.025179 -0.044323
H  -0.000000 -0.399597  0.771048
2
Frame 486   E = -75.33359440 Ha
O   0.000000  0.024924 -0.044837
H  -0.000000 -0.395560  0.779194
2
Frame 487   E = -75.33379842 Ha
O   0.000000  0.024690 -0.045385
H  -0.000000 -0.391849  0.787900
2
Frame 488   E = -75.33390593 Ha
O   0.000000  0.024470 -0.045955
H  -0.000000 -0.388353  0.796949
2
Frame 489   E = -75.33390018 Ha
O   0.000000  0.024257 -0.046533
H  -0.000000 -0.384964  0.806120
2
Frame 490   E = -75.33378181 Ha
O   0.000000  0.024043 -0.047105
H  -0.000000 -0.381576  0.815193
2
Frame 491   E = -75.33356661 Ha
O   0.000000  0.023824 -0.047657
H  -0.000000 -0.378097  0.823957
2
Frame 492   E = -75.33328162 Ha
O   0.000000  0.023594 -0.048178
H  -0.000000 -0.374443  0.832220
2
Frame 493   E = -75.33296049 Ha
O   0.000000  0.023348 -0.048656
H  -0.000000 -0.370544  0.839810
2
Frame 494   E = -75.33263894 Ha
O   0.000000  0.023083 -0.049083
H  -0.000000 -0.366344  0.846579
2
Frame 495   E = -75.33235084 Ha
O   0.000000  0.022797 -0.049450
H  -0.000000 -0.361800  0.852407
2
Frame 496   E = -75.33212500 Ha
O   0.000000  0.022487 -0.049752
H  -0.000000 -0.356880  0.857197
2
Frame 497   E = -75.33198286 Ha
O   0.000000  0.022152 -0.049984
H  -0.000000 -0.351567  0.860883
2
Frame 498   E = -75.33193694 Ha
O   0.000000  0.021792 -0.050144
H  -0.000000 -0.345856  0.863426
2
Frame 499   E = -75.33198996 Ha
O   0.000000  0.021408 -0.050232
H  -0.000000 -0.339751  0.864815
2
Frame 500   E = -75.33213459 Ha
O   0.000000  0.020999 -0.050248
H  -0.000000 -0.333269  0.865069
2
Frame 501   E = -75.33235391 Ha
O   0.000000  0.020569 -0.050195
H  -0.000000 -0.326437  0.864235
2
Frame 502   E = -75.33262243 Ha
O   0.000000  0.020119 -0.050079
H  -0.000000 -0.319292  0.862388
2
Frame 503   E = -75.33290800 Ha
O   0.000000  0.019651 -0.049905
H  -0.000000 -0.311878  0.859636
2
Frame 504   E = -75.33317452 Ha
O   0.000000  0.019171 -0.049683
H  -0.000000 -0.304250  0.856112
2
Frame 505   E = -75.33338562 Ha
O   0.000000  0.018681 -0.049423
H  -0.000000 -0.296471  0.851982
2
Frame 506   E = -75.33350910 Ha
O   0.000000  0.018185 -0.049137
H  -0.000000 -0.288610  0.847436
2
Frame 507   E = -75.33352188 Ha
O   0.000000  0.017689 -0.048837
H  -0.000000 -0.280739  0.842687
2
Frame 508   E = -75.33341475 Ha
O   0.000000  0.017198 -0.048540
H  -0.000000 -0.272936  0.837969
2
Frame 509   E = -75.33319590 Ha
O   0.000000  0.016715 -0.048260
H  -0.000000 -0.265277  0.833524
2
Frame 510   E = -75.33289211 Ha
O   0.000000  0.016246 -0.048013
H  -0.000000 -0.257836  0.829596
2
Frame 511   E = -75.33254653 Ha
O   0.000000  0.015795 -0.047812
H  -0.000000 -0.250678  0.826420
2
Frame 512   E = -75.33221254 Ha
O   0.000000  0.015366 -0.047673
H  -0.000000 -0.243862  0.824206
2
Frame 513   E = -75.33194446 Ha
O   0.000000  0.014960 -0.047605
H  -0.000000 -0.237428  0.823128
2
Frame 514   E = -75.33178673 Ha
O   0.000000  0.014581 -0.047616
H  -0.000000 -0.231405  0.823309
2
Frame 515   E = -75.33176428 Ha
O   0.000000  0.014228 -0.047711
H  -0.000000 -0.225800  0.824816
2
Frame 516   E = -75.33187691 Ha
O   0.000000  0.013900 -0.047890
H  -0.000000 -0.220605  0.827651
2
Frame 517   E = -75.33209932 Ha
O   0.000000  0.013597 -0.048148
H  -0.000000 -0.215795  0.831752
2
Frame 518   E = -75.33238675 Ha
O   0.000000  0.013316 -0.048479
H  -0.000000 -0.211330  0.836999
2
Frame 519   E = -75.33268468 Ha
O   0.000000  0.013053 -0.048871
H  -0.000000 -0.207160  0.843217
2
Frame 520   E = -75.33293962 Ha
O   0.000000  0.012806 -0.049311
H  -0.000000 -0.203231  0.850197
2
Frame 521   E = -75.33310861 Ha
O   0.000000  0.012570 -0.049783
H  -0.000000 -0.199482  0.857700
2
Frame 522   E = -75.33316529 Ha
O   0.000000  0.012341 -0.050273
H  -0.000000 -0.195856  0.865478
2
Frame 523   E = -75.33310217 Ha
O   0.000000  0.012117 -0.050765
H  -0.000000 -0.192297  0.873281
2
Frame 524   E = -75.33292938 Ha
O   0.000000  0.011894 -0.051243
H  -0.000000 -0.188757  0.880867
2
Frame 525   E = -75.33267109 Ha
O   0.000000  0.011669 -0.051693
H  -0.000000 -0.185190  0.888015
2
Frame 526   E = -75.33236065 Ha
O   0.000000  0.011440 -0.052103
H  -0.000000 -0.181563  0.894522
2
Frame 527   E = -75.33203550 Ha
O   0.000000  0.011206 -0.052462
H  -0.000000 -0.177845  0.900218
2
Frame 528   E = -75.33173255 Ha
O   0.000000  0.010965 -0.052761
H  -0.000000 -0.174016  0.904958
2
Frame 529   E = -75.33148441 Ha
O   0.000000  0.010716 -0.052992
H  -0.000000 -0.170061  0.908628
2
Frame 530   E = -75.33131645 Ha
O   0.000000  0.010458 -0.053151
H  -0.000000 -0.165972  0.911149
2
Frame 531   E = -75.33124484 Ha
O   0.000000  0.010192 -0.053234
H  -0.000000 -0.161746  0.912470
2
Frame 532   E = -75.33127539 Ha
O   0.000000  0.009917 -0.053241
H  -0.000000 -0.157387  0.912573
2
Frame 533   E = -75.33140306 Ha
O   0.000000  0.009635 -0.053171
H  -0.000000 -0.152903  0.911472
2
Frame 534   E = -75.33161230 Ha
O   0.000000  0.009345 -0.053029
H  -0.000000 -0.148307  0.909215
2
Frame 535   E = -75.33187802 Ha
O   0.000000  0.009049 -0.052819
H  -0.000000 -0.143616  0.905879
2
Frame 536   E = -75.33216750 Ha
O   0.000000  0.008749 -0.052548
H  -0.000000 -0.138849  0.901577
2
Frame 537   E = -75.33244324 Ha
O   0.000000  0.008446 -0.052225
H  -0.000000 -0.134033  0.896451
2
Frame 538   E = -75.33266670 Ha
O   0.000000  0.008141 -0.051861
H  -0.000000 -0.129193  0.890676
2
Frame 539   E = -75.33280316 Ha
O   0.000000  0.007836 -0.051469
H  -0.000000 -0.124359  0.884457
2
Frame 540   E = -75.33282692 Ha
O   0.000000  0.007534 -0.051064
H  -0.000000 -0.119562  0.878022
2
Frame 541   E = -75.33272656 Ha
O   0.000000  0.007236 -0.050660
H  -0.000000 -0.114834  0.871620
2
Frame 542   E = -75.33250894 Ha
O   0.000000  0.006944 -0.050276
H  -0.000000 -0.110205  0.865512
2
Frame 543   E = -75.33220074 Ha
O   0.000000  0.006661 -0.049926
H  -0.000000 -0.105704  0.859962
2
Frame 544   E = -75.33184642 Ha
O   0.000000  0.006387 -0.049627
H  -0.000000 -0.101357  0.855220
2
Frame 545   E = -75.33150196 Ha
O   0.000000  0.006124 -0.049393
H  -0.000000 -0.097184  0.851513
2
Frame 546   E = -75.33122499 Ha
O   0.000000  0.005873 -0.049237
H  -0.000000 -0.093200  0.849027
2
Frame 547   E = -75.33106320 Ha
O   0.000000  0.005634 -0.049166
H  -0.000000 -0.089414  0.847897
2
Frame 548   E = -75.33104385 Ha
O   0.000000  0.005408 -0.049184
H  -0.000000 -0.085825  0.848193
2
Frame 549   E = -75.33116757 Ha
O   0.000000  0.005194 -0.049293
H  -0.000000 -0.082428  0.849917
2
Frame 550   E = -75.33140815 Ha
O   0.000000  0.004991 -0.049487
H  -0.000000 -0.079212  0.853004
2
Frame 551   E = -75.33171854 Ha
O   0.000000  0.004799 -0.049760
H  -0.000000 -0.076160  0.857322
2
Frame 552   E = -75.33204117 Ha
O   0.000000  0.004616 -0.050098
H  -0.000000 -0.073252  0.862689
2
Frame 553   E = -75.33231962 Ha
O   0.000000  0.004441 -0.050488
H  -0.000000 -0.070469  0.868878
2
Frame 554   E = -75.33250872 Ha
O   0.000000  0.004272 -0.050914
H  -0.000000 -0.067789  0.875639
2
Frame 555   E = -75.33258099 Ha
O   0.000000  0.004108 -0.051359
H  -0.000000 -0.065193  0.882707
2
Frame 556   E = -75.33252899 Ha
O   0.000000  0.003949 -0.051807
H  -0.000000 -0.062665  0.889818
2
Frame 557   E = -75.33236389 Ha
O   0.000000  0.003793 -0.052242
H  -0.000000 -0.060191  0.896721
2
Frame 558   E = -75.33211147 Ha
O   0.000000  0.003640 -0.052649
H  -0.000000 -0.057757  0.903183
2
Frame 559   E = -75.33180694 Ha
O   0.000000  0.003488 -0.053015
H  -0.000000 -0.055357  0.908995
2
Frame 560   E = -75.33148945 Ha
O   0.000000  0.003339 -0.053330
H  -0.000000 -0.052984  0.913980
2
Frame 561   E = -75.33119725 Ha
O   0.000000  0.003191 -0.053582
H  -0.000000 -0.050635  0.917991
2
Frame 562   E = -75.33096368 Ha
O   0.000000  0.003044 -0.053766
H  -0.000000 -0.048307  0.920914
2
Frame 563   E = -75.33081415 Ha
O   0.000000  0.002899 -0.053877
H  -0.000000 -0.046002  0.922669
2
Frame 564   E = -75.33076420 Ha
O   0.000000  0.002755 -0.053911
H  -0.000000 -0.043721  0.923208
2
Frame 565   E = -75.33081828 Ha
O   0.000000  0.002613 -0.053868
H  -0.000000 -0.041466  0.922519
2
Frame 566   E = -75.33096946 Ha
O   0.000000  0.002473 -0.053748
H  -0.000000 -0.039240  0.920623
2
Frame 567   E = -75.33119988 Ha
O   0.000000  0.002335 -0.053556
H  -0.000000 -0.037049  0.917573
2
Frame 568   E = -75.33148198 Ha
O   0.000000  0.002199 -0.053297
H  -0.000000 -0.034897  0.913458
2
Frame 569   E = -75.33178075 Ha
O   0.000000  0.002066 -0.052978
H  -0.000000 -0.032788  0.908399
2
Frame 570   E = -75.33205691 Ha
O   0.000000  0.001936 -0.052609
H  -0.000000 -0.030727  0.902553
2
Frame 571   E = -75.33227119 Ha
O   0.000000  0.001810 -0.052203
H  -0.000000 -0.028720  0.896106
2
Frame 572   E = -75.33238945 Ha
O   0.000000  0.001687 -0.051773
H  -0.000000 -0.026770  0.889274
2
Frame 573   E = -75.33238833 Ha
O   0.000000  0.001568 -0.051333
H  -0.000000 -0.024883  0.882298
2
Frame 574   E = -75.33226047 Ha
O   0.000000  0.001453 -0.050901
H  -0.000000 -0.023062  0.875438
2
Frame 575   E = -75.33201815 Ha
O   0.000000  0.001343 -0.050493
H  -0.000000 -0.021311  0.868963
2
Frame 576   E = -75.33169403 Ha
O   0.000000  0.001237 -0.050126
H  -0.000000 -0.019632  0.863140
2
Frame 577   E = -75.33133791 Ha
O   0.000000  0.001136 -0.049816
H  -0.000000 -0.018026  0.858221
2
Frame 578   E = -75.33100904 Ha
O   0.000000  0.001040 -0.049577
H  -0.000000 -0.016494  0.854427
2
Frame 579   E = -75.33076511 Ha
O   0.000000  0.000948 -0.049420
H  -0.000000 -0.015036  0.851936
2
Frame 580   E = -75.33065022 Ha
O   0.000000  0.000860 -0.049353
H  -0.000000 -0.013649  0.850865
2
Frame 581   E = -75.33068496 Ha
O   0.000000  0.000777 -0.049378
H  -0.000000 -0.012332  0.851267
2
Frame 582   E = -75.33086161 Ha
O   0.000000  0.000699 -0.049495
H  -0.000000 -0.011083  0.853124
2
Frame 583   E = -75.33114592 Ha
O   0.000000  0.000624 -0.049698
H  -0.000000 -0.009900  0.856345
2
Frame 584   E = -75.33148501 Ha
O   0.000000  0.000554 -0.049977
H  -0.000000 -0.008779  0.860780
2
Frame 585   E = -75.33181877 Ha
O   0.000000  0.000487 -0.050321
H  -0.000000 -0.007720  0.866226
2
Frame 586   E = -75.33209182 Ha
O   0.000000  0.000424 -0.050712
H  -0.000000 -0.006722  0.872444
2
Frame 587   E = -75.33226289 Ha
O   0.000000  0.000365 -0.051136
H  -0.000000 -0.005786  0.879172
2
Frame 588   E = -75.33231020 Ha
O   0.000000  0.000310 -0.051575
H  -0.000000 -0.004913  0.886138
2
Frame 589   E = -75.33223248 Ha
O   0.000000  0.000259 -0.052013
H  -0.000000 -0.004104  0.893079
2
Frame 590   E = -75.33204650 Ha
O   0.000000  0.000212 -0.052432
H  -0.000000 -0.003362  0.899742
2
Frame 591   E = -75.33178236 Ha
O   0.000000  0.000170 -0.052820
H  -0.000000 -0.002690  0.905899
2
Frame 592   E = -75.33147792 Ha
O   0.000000  0.000132 -0.053164
H  -0.000000 -0.002092  0.911349
2
Frame 593   E = -75.33117331 Ha
O   0.000000  0.000099 -0.053452
H  -0.000000 -0.001569  0.915922
2
Frame 594   E = -75.33090616 Ha
O   0.000000  0.000071 -0.053676
H  -0.000000 -0.001125  0.919481
2
Frame 595   E = -75.33070790 Ha
O   0.000000  0.000048 -0.053830
H  -0.000000 -0.000761  0.921921
2
Frame 596   E = -75.33060100 Ha
O   0.000000  0.000031 -0.053909
H  -0.000000 -0.000481  0.923174
2
Frame 597   E = -75.33059726 Ha
O   0.000000  0.000018 -0.053911
H  -0.000000 -0.000284  0.923204
2
Frame 598   E = -75.33069704 Ha
O   0.000000  0.000011 -0.053835
H  -0.000000 -0.000170  0.922011
2
Frame 599   E = -75.33088912 Ha
O   0.000000  0.000009 -0.053685
H  -0.000000 -0.000140  0.919627
2
Frame 600   E = -75.33115158 Ha
O   0.000000  0.000012 -0.053464
H  -0.000000 -0.000192  0.916121
2
Frame 601   E = -75.33145344 Ha
O   0.000000  0.000021 -0.053179
H  -0.000000 -0.000324  0.911594
2
Frame 602   E = -75.33175727 Ha
O   0.000000  0.000034 -0.052838
H  -0.000000 -0.000535  0.906181
2
Frame 603   E = -75.33202293 Ha
O   0.000000  0.000052 -0.052452
H  -0.000000 -0.000819  0.900051
2
Frame 604   E = -75.33221225 Ha
O   0.000000  0.000074 -0.052033
H  -0.000000 -0.001176  0.893403
2
Frame 605   E = -75.33229449 Ha
O   0.000000  0.000101 -0.051596
H  -0.000000 -0.001601  0.886466
2
Frame 606   E = -75.33225200 Ha
O   0.000000  0.000132 -0.051156
H  -0.000000 -0.002090  0.879489
2
Frame 607   E = -75.33208494 Ha
O   0.000000  0.000167 -0.050731
H  -0.000000 -0.002642  0.872738
2
Frame 608   E = -75.33181401 Ha
O   0.000000  0.000205 -0.050337
H  -0.000000 -0.003252  0.866482
2
Frame 609   E = -75.33147957 Ha
O   0.000000  0.000247 -0.049990
H  -0.000000 -0.003920  0.860987
2
Frame 610   E = -75.33113658 Ha
O   0.000000  0.000293 -0.049707
H  -0.000000 -0.004644  0.856492
2
Frame 611   E = -75.33084530 Ha
O   0.000000  0.000342 -0.049500
H  -0.000000 -0.005423  0.853204
2
Frame 612   E = -75.33065948 Ha
O   0.000000  0.000395 -0.049379
H  -0.000000 -0.006259  0.851277
2
Frame 613   E = -75.33061467 Ha
O   0.000000  0.000451 -0.049349
H  -0.000000 -0.007151  0.850803
2
Frame 614   E = -75.33072016 Ha
O   0.000000  0.000511 -0.049412
H  -0.000000 -0.008102  0.851805
2
Frame 615   E = -75.33095675 Ha
O   0.000000  0.000575 -0.049565
H  -0.000000 -0.009114  0.854236
2
Frame 616   E = -75.33128128 Ha
O   0.000000  0.000642 -0.049801
H  -0.000000 -0.010187  0.857979
2
Frame 617   E = -75.33163631 Ha
O   0.000000  0.000714 -0.050109
H  -0.000000 -0.011324  0.862861
2
Frame 618   E = -75.33196222 Ha
O   0.000000  0.000790 -0.050474
H  -0.000000 -0.012526  0.868662
2
Frame 619   E = -75.33220839 Ha
O   0.000000  0.000869 -0.050882
H  -0.000000 -0.013793  0.875130
2
Frame 620   E = -75.33234107 Ha
O   0.000000  0.000953 -0.051314
H  -0.000000 -0.015125  0.881998
2
Frame 621   E = -75.33234690 Ha
O   0.000000  0.001041 -0.051755
H  -0.000000 -0.016522  0.888997
2
Frame 622   E = -75.33223238 Ha
O   0.000000  0.001133 -0.052188
H  -0.000000 -0.017984  0.895866
2
Frame 623   E = -75.33202026 Ha
O   0.000000  0.001230 -0.052597
H  -0.000000 -0.019508  0.902362
2
Frame 624   E = -75.33174438 Ha
O   0.000000  0.001329 -0.052970
H  -0.000000 -0.021092  0.908268
2
Frame 625   E = -75.33144403 Ha
O   0.000000  0.001433 -0.053293
H  -0.000000 -0.022735  0.913394
2
Frame 626   E = -75.33115871 Ha
O   0.000000  0.001540 -0.053557
H  -0.000000 -0.024434  0.917583
2
Frame 627   E = -75.33092382 Ha
O   0.000000  0.001650 -0.053754
H  -0.000000 -0.026186  0.920712
2
Frame 628   E = -75.33076737 Ha
O   0.000000  0.001764 -0.053878
H  -0.000000 -0.027988  0.922691
2
Frame 629   E = -75.33070773 Ha
O   0.000000  0.001880 -0.053927
H  -0.000000 -0.029838  0.923464
2
Frame 630   E = -75.33075228 Ha
O   0.000000  0.002000 -0.053898
H  -0.000000 -0.031733  0.923009
2
Frame 631   E = -75.33089698 Ha
O   0.000000  0.002122 -0.053793
H  -0.000000 -0.033671  0.921338
2
Frame 632   E = -75.33112661 Ha
O   0.000000  0.002247 -0.053614
H  -0.000000 -0.035649  0.918496
2
Frame 633   E = -75.33141591 Ha
O   0.000000  0.002374 -0.053366
H  -0.000000 -0.037666  0.914564
2
Frame 634   E = -75.33173161 Ha
O   0.000000  0.002503 -0.053057
H  -0.000000 -0.039724  0.909654
2
Frame 635   E = -75.33203535 Ha
O   0.000000  0.002636 -0.052695
H  -0.000000 -0.041823  0.903912
2
Frame 636   E = -75.33228771 Ha
O   0.000000  0.002771 -0.052292
H  -0.000000 -0.043966  0.897518
2
Frame 637   E = -75.33245312 Ha
O   0.000000  0.002909 -0.051861
H  -0.000000 -0.046159  0.890677
2
Frame 638   E = -75.33250533 Ha
O   0.000000  0.003051 -0.051417
H  -0.000000 -0.048408  0.883625
2
Frame 639   E = -75.33243269 Ha
O   0.000000  0.003196 -0.050975
H  -0.000000 -0.050724  0.876614
2
Frame 640   E = -75.33224223 Ha
O   0.000000  0.003347 -0.050553
H  -0.000000 -0.053119  0.869909
2
Frame 641   E = -75.33196117 Ha
O   0.000000  0.003504 -0.050166
H  -0.000000 -0.055605  0.863775
2
Frame 642   E = -75.33163469 Ha
O   0.000000  0.003667 -0.049832
H  -0.000000 -0.058199  0.858466
2
Frame 643   E = -75.33131949 Ha
O   0.000000  0.003839 -0.049563
H  -0.000000 -0.060916  0.854210
2
Frame 644   E = -75.33107364 Ha
O   0.000000  0.004018 -0.049373
H  -0.000000 -0.063770  0.851192
2
Frame 645   E = -75.33094485 Ha
O   0.000000  0.004208 -0.049269
H  -0.000000 -0.066776  0.849544
2
Frame 646   E = -75.33095995 Ha
O   0.000000  0.004407 -0.049256
H  -0.000000 -0.069941  0.849336
2
Frame 647   E = -75.33111878 Ha
O   0.000000  0.004617 -0.049334
H  -0.000000 -0.073273  0.850566
2
Frame 648   E = -75.33139422 Ha
O   0.000000  0.004838 -0.049497
H  -0.000000 -0.076770  0.853163
2
Frame 649   E = -75.33173845 Ha
O   0.000000  0.005068 -0.049739
H  -0.000000 -0.080428  0.856994
2
Frame 650   E = -75.33209345 Ha
O   0.000000  0.005308 -0.050046
H  -0.000000 -0.084235  0.861873
2
Frame 651   E = -75.33240273 Ha
O   0.000000  0.005556 -0.050405
H  -0.000000 -0.088178  0.867570
2
Frame 652   E = -75.33262134 Ha
O   0.000000  0.005812 -0.050800
H  -0.000000 -0.092235  0.873834
2
Frame 653   E = -75.33272222 Ha
O   0.000000  0.006073 -0.051214
H  -0.000000 -0.096384  0.880401
2
Frame 654   E = -75.33269833 Ha
O   0.000000  0.006339 -0.051630
H  -0.000000 -0.100602  0.887006
2
Frame 655   E = -75.33256108 Ha
O   0.000000  0.006608 -0.052033
H  -0.000000 -0.104864  0.893399
2
Frame 656   E = -75.33233630 Ha
O   0.000000  0.006877 -0.052408
H  -0.000000 -0.109144  0.899349
2
Frame 657   E = -75.33205900 Ha
O   0.000000  0.007147 -0.052742
H  -0.000000 -0.113420  0.904650
2
Frame 658   E = -75.33176797 Ha
O   0.000000  0.007415 -0.053024
H  -0.000000 -0.117670  0.909126
2
Frame 659   E = -75.33150102 Ha
O   0.000000  0.007679 -0.053245
H  -0.000000 -0.121873  0.912633
2
Frame 660   E = -75.33129105 Ha
O   0.000000  0.007940 -0.053397
H  -0.000000 -0.126013  0.915057
2
Frame 661   E = -75.33116327 Ha
O   0.000000  0.008196 -0.053477
H  -0.000000 -0.130076  0.916320
2
Frame 662   E = -75.33113321 Ha
O   0.000000  0.008447 -0.053480
H  -0.000000 -0.134050  0.916375
2
Frame 663   E = -75.33120575 Ha
O   0.000000  0.008691 -0.053407
H  -0.000000 -0.137930  0.915207
2
Frame 664   E = -75.33137483 Ha
O   0.000000  0.008929 -0.053257
H  -0.000000 -0.141711  0.912837
2
Frame 665   E = -75.33162386 Ha
O   0.000000  0.009162 -0.053035
H  -0.000000 -0.145395  0.909313
2
Frame 666   E = -75.33192701 Ha
O   0.000000  0.009388 -0.052746
H  -0.000000 -0.148988  0.904719
2
Frame 667   E = -75.33225119 Ha
O   0.000000  0.009609 -0.052396
H  -0.000000 -0.152503  0.899170
2
Frame 668   E = -75.33255905 Ha
O   0.000000  0.009827 -0.051996
H  -0.000000 -0.155956  0.892813
2
Frame 669   E = -75.33281285 Ha
O   0.000000  0.010042 -0.051555
H  -0.000000 -0.159371  0.885822
2
Frame 670   E = -75.33297920 Ha
O   0.000000  0.010257 -0.051088
H  -0.000000 -0.162779  0.878403
2
Frame 671   E = -75.33303422 Ha
O   0.000000  0.010473 -0.050608
H  -0.000000 -0.166215  0.870780
2
Frame 672   E = -75.33296841 Ha
O   0.000000  0.010694 -0.050130
H  -0.000000 -0.169722  0.863200
2
Frame 673   E = -75.33279027 Ha
O   0.000000  0.010923 -0.049671
H  -0.000000 -0.173347  0.855915
2
Frame 674   E = -75.33252739 Ha
O   0.000000  0.011162 -0.049246
H  -0.000000 -0.177139  0.849179
2
Frame 675   E = -75.33222397 Ha
O   0.000000  0.011414 -0.048872
H  -0.000000 -0.181149  0.843232
2
Frame 676   E = -75.33193444 Ha
O   0.000000  0.011684 -0.048560
H  -0.000000 -0.185425  0.838285
2
Frame 677   E = -75.33171374 Ha
O   0.000000  0.011973 -0.048322
H  -0.000000 -0.190010  0.834513
2
Frame 678   E = -75.33160628 Ha
O   0.000000  0.012283 -0.048166
H  -0.000000 -0.194937  0.832036
2
Frame 679   E = -75.33163631 Ha
O   0.000000  0.012617 -0.048096
H  -0.000000 -0.200228  0.830914
2
Frame 680   E = -75.33180245 Ha
O   0.000000  0.012973 -0.048110
H  -0.000000 -0.205892  0.831141
2
Frame 681   E = -75.33207802 Ha
O   0.000000  0.013353 -0.048205
H  -0.000000 -0.211919  0.832646
2
Frame 682   E = -75.33241710 Ha
O   0.000000  0.013754 -0.048372
H  -0.000000 -0.218288  0.835299
2
Frame 683   E = -75.33276447 Ha
O   0.000000  0.014175 -0.048600
H  -0.000000 -0.224959  0.838923
2
Frame 684   E = -75.33306650 Ha
O   0.000000  0.014611 -0.048876
H  -0.000000 -0.231885  0.843300
2
Frame 685   E = -75.33328053 Ha
O   0.000000  0.015060 -0.049184
H  -0.000000 -0.239007  0.848192
2
Frame 686   E = -75.33338079 Ha
O   0.000000  0.015517 -0.049509
H  -0.000000 -0.246261  0.853348
2
Frame 687   E = -75.33336033 Ha
O   0.000000  0.015978 -0.049835
H  -0.000000 -0.253580  0.858523
2
Frame 688   E = -75.33322968 Ha
O   0.000000  0.016439 -0.050148
H  -0.000000 -0.260896  0.863480
2
Frame 689   E = -75.33301306 Ha
O   0.000000  0.016896 -0.050432
H  -0.000000 -0.268147  0.868001
2
Frame 690   E = -75.33274354 Ha
O   0.000000  0.017345 -0.050678
H  -0.000000 -0.275270  0.871895
2
Frame 691   E = -75.33245802 Ha
O   0.000000  0.017782 -0.050873
H  -0.000000 -0.282213  0.874996
2
Frame 692   E = -75.33219277 Ha
O   0.000000  0.018205 -0.051010
H  -0.000000 -0.288926  0.877168
2
Frame 693   E = -75.33197975 Ha
O   0.000000  0.018611 -0.051082
H  -0.000000 -0.295372  0.878305
2
Frame 694   E = -75.33184395 Ha
O   0.000000  0.018999 -0.051083
H  -0.000000 -0.301516  0.878330
2
Frame 695   E = -75.33180154 Ha
O   0.000000  0.019365 -0.051012
H  -0.000000 -0.307336  0.877199
2
Frame 696   E = -75.33185884 Ha
O   0.000000  0.019711 -0.050867
H  -0.000000 -0.312819  0.874895
2
Frame 697   E = -75.33201200 Ha
O   0.000000  0.020035 -0.050649
H  -0.000000 -0.317960  0.871432
2
Frame 698   E = -75.33224728 Ha
O   0.000000  0.020337 -0.050360
H  -0.000000 -0.322764  0.866853
2
Frame 699   E = -75.33254204 Ha
O   0.000000  0.020620 -0.050006
H  -0.000000 -0.327248  0.861228
2
Frame 700   E = -75.33286638 Ha
O   0.000000  0.020884 -0.049592
H  -0.000000 -0.331440  0.854658
2
Frame 701   E = -75.33318565 Ha
O   0.000000  0.021132 -0.049126
H  -0.000000 -0.335381  0.847270
2
Frame 702   E = -75.33346381 Ha
O   0.000000  0.021368 -0.048619
H  -0.000000 -0.339120  0.839220
2
Frame 703   E = -75.33366747 Ha
O   0.000000  0.021595 -0.048081
H  -0.000000 -0.342724  0.830686
2
Frame 704   E = -75.33377065 Ha
O   0.000000  0.021818 -0.047526
H  -0.000000 -0.346268  0.821868
2
Frame 705   E = -75.33375933 Ha
O   0.000000  0.022043 -0.046966
H  -0.000000 -0.349837  0.812986
2
Frame 706   E = -75.33363532 Ha
O   0.000000  0.022276 -0.046416
H  -0.000000 -0.353525  0.804264
2
Frame 707   E = -75.33341814 Ha
O   0.000000  0.022522 -0.045891
H  -0.000000 -0.357433  0.795933
2
Frame 708   E = -75.33314400 Ha
O   0.000000  0.022788 -0.045405
H  -0.000000 -0.361660  0.788213
2
Frame 709   E = -75.33286118 Ha
O   0.000000  0.023081 -0.044970
H  -0.000000 -0.366302  0.781302
2
Frame 710   E = -75.33262214 Ha
O   0.000000  0.023405 -0.044596
H  -0.000000 -0.371443  0.775368
2
Frame 711   E = -75.33247358 Ha
O   0.000000  0.023764 -0.044291
H  -0.000000 -0.377151  0.770536
2
Frame 712   E = -75.33244674 Ha
O   0.000000  0.024163 -0.044061
H  -0.000000 -0.383472  0.766879
2
Frame 713   E = -75.33255058 Ha
O   0.000000  0.024601 -0.043905
H  -0.000000 -0.390427  0.764412
2
Frame 714   E = -75.33276978 Ha
O   0.000000  0.025078 -0.043822
H  -0.000000 -0.398007  0.763095
2
Frame 715   E = -75.33306822 Ha
O   0.000000  0.025593 -0.043806
H  -0.000000 -0.406174  0.762832
2
Frame 716   E = -75.33339676 Ha
O   0.000000  0.026141 -0.043847
H  -0.000000 -0.414864  0.763481
2
Frame 717   E = -75.33370326 Ha
O   0.000000  0.026716 -0.043934
H  -0.000000 -0.423992  0.764865
2
Frame 718   E = -75.33394206 Ha
O   0.000000  0.027312 -0.044055
H  -0.000000 -0.433454  0.766781
2
Frame 719   E = -75.33408102 Ha
O   0.000000  0.027922 -0.044195
H  -0.000000 -0.443134  0.769014
2
Frame 720   E = -75.33410509 Ha
O   0.000000  0.028538 -0.044342
H  -0.000000 -0.452912  0.771348
2
Frame 721   E = -75.33401640 Ha
O   0.000000  0.029153 -0.044482
H  -0.000000 -0.462666  0.773571
2
Frame 722   E = -75.33383184 Ha
O   0.000000  0.029758 -0.044603
H  -0.000000 -0.472278  0.775490
2
Frame 723   E = -75.33357893 Ha
O   0.000000  0.030348 -0.044694
H  -0.000000 -0.481639  0.776927
2
Frame 724   E = -75.33329125 Ha
O   0.000000  0.030916 -0.044745
H  -0.000000 -0.490648  0.777731
2
Frame 725   E = -75.33300400 Ha
O   0.000000  0.031456 -0.044747
H  -0.000000 -0.499218  0.777772
2
Frame 726   E = -75.33275022 Ha
O   0.000000  0.031963 -0.044695
H  -0.000000 -0.507274  0.776949
2
Frame 727   E = -75.33255783 Ha
O   0.000000  0.032435 -0.044584
H  -0.000000 -0.514756  0.775185
2
Frame 728   E = -75.33244750 Ha
O   0.000000  0.032867 -0.044410
H  -0.000000 -0.521618  0.772429
2
Frame 729   E = -75.33243126 Ha
O   0.000000  0.033259 -0.044173
H  -0.000000 -0.527832  0.768655
2
Frame 730   E = -75.33251179 Ha
O   0.000000  0.033608 -0.043871
H  -0.000000 -0.533383  0.763863
2
Frame 731   E = -75.33268231 Ha
O   0.000000  0.033916 -0.043506
H  -0.000000 -0.538274  0.758076
2
Frame 732   E = -75.33292701 Ha
O   0.000000  0.034184 -0.043082
H  -0.000000 -0.542525  0.751340
2
Frame 733   E = -75.33322209 Ha
O   0.000000  0.034414 -0.042602
H  -0.000000 -0.546174  0.743726
2
Frame 734   E = -75.33353748 Ha
O   0.000000  0.034610 -0.042073
H  -0.000000 -0.549276  0.735328
2
Frame 735   E = -75.33383933 Ha
O   0.000000  0.034775 -0.041502
H  -0.000000 -0.551905  0.726261
2
Frame 736   E = -75.33409325 Ha
O   0.000000  0.034917 -0.040897
H  -0.000000 -0.554155  0.716662
2
Frame 737   E = -75.33426833 Ha
O   0.000000  0.035042 -0.040268
H  -0.000000 -0.556136  0.706684
2
Frame 738   E = -75.33434151 Ha
O   0.000000  0.035158 -0.039626
H  -0.000000 -0.557976  0.696501
2
Frame 739   E = -75.33430191 Ha
O   0.000000  0.035274 -0.038983
H  -0.000000 -0.559817  0.686292
2
Frame 740   E = -75.33415417 Ha
O   0.000000  0.035399 -0.038350
H  -0.000000 -0.561808  0.676248
2
Frame 741   E = -75.33391983 Ha
O   0.000000  0.035544 -0.037739
H  -0.000000 -0.564107  0.666553
2
Frame 742   E = -75.33363585 Ha
O   0.000000  0.035718 -0.037162
H  -0.000000 -0.566866  0.657383
2
Frame 743   E = -75.33334972 Ha
O   0.000000  0.035930 -0.036627
H  -0.000000 -0.570229  0.648896
2
Frame 744   E = -75.33311164 Ha
O   0.000000  0.036188 -0.036143
H  -0.000000 -0.574317  0.641220
2
Frame 745   E = -75.33296491 Ha
O   0.000000  0.036497 -0.035716
H  -0.000000 -0.579226  0.634446
2
Frame 746   E = -75.33293704 Ha
O   0.000000  0.036862 -0.035349
H  -0.000000 -0.585015  0.628623
2
Frame 747   E = -75.33303373 Ha
O   0.000000  0.037283 -0.035043
H  -0.000000 -0.591703  0.623754
2
Frame 748   E = -75.33323764 Ha
O   0.000000  0.037760 -0.034793
H  -0.000000 -0.599266  0.619798
2
Frame 749   E = -75.33351217 Ha
O   0.000000  0.038287 -0.034596
H  -0.000000 -0.607638  0.616671
2
Frame 750   E = -75.33380930 Ha
O   0.000000  0.038859 -0.034444
H  -0.000000 -0.616716  0.614256
2
Frame 751   E = -75.33407910 Ha
O   0.000000  0.039467 -0.034328
H  -0.000000 -0.626366  0.612408
2
Frame 752   E = -75.33427866 Ha
O   0.000000  0.040101 -0.034237
H  -0.000000 -0.636432  0.610966
2
Frame 753   E = -75.33437851 Ha
O   0.000000  0.040751 -0.034161
H  -0.000000 -0.646744  0.609763
2
Frame 754   E = -75.33436574 Ha
O   0.000000  0.041405 -0.034090
H  -0.000000 -0.657125  0.608631
2
Frame 755   E = -75.33424390 Ha
O   0.000000  0.042053 -0.034013
H  -0.000000 -0.667399  0.607410
2
Frame 756   E = -75.33403051 Ha
O   0.000000  0.042683 -0.033921
H  -0.000000 -0.677402  0.605953
2
Frame 757   E = -75.33375308 Ha
O   0.000000  0.043286 -0.033806
H  -0.000000 -0.686978  0.604130
2
Frame 758   E = -75.33344472 Ha
O   0.000000  0.043854 -0.033661
H  -0.000000 -0.695989  0.601828
2
Frame 759   E = -75.33313988 Ha
O   0.000000  0.044379 -0.033480
H  -0.000000 -0.704316  0.598957
2
Frame 760   E = -75.33287076 Ha
O   0.000000  0.044854 -0.033259
H  -0.000000 -0.711859  0.595443
2
Frame 761   E = -75.33266444 Ha
O   0.000000  0.045275 -0.032994
H  -0.000000 -0.718539  0.591234
2
Frame 762   E = -75.33254083 Ha
O   0.000000  0.045638 -0.032683
H  -0.000000 -0.724301  0.586298
2
Frame 763   E = -75.33251134 Ha
O   0.000000  0.045941 -0.032325
H  -0.000000 -0.729109  0.580622
2
Frame 764   E = -75.33257811 Ha
O   0.000000  0.046183 -0.031921
H  -0.000000 -0.732951  0.574210
2
Frame 765   E = -75.33273393 Ha
O   0.000000  0.046365 -0.031472
H  -0.000000 -0.735838  0.567084
2
Frame 766   E = -75.33296258 Ha
O   0.000000  0.046489 -0.030980
H  -0.000000 -0.737806  0.559285
2
Frame 767   E = -75.33323990 Ha
O   0.000000  0.046559 -0.030450
H  -0.000000 -0.738912  0.550869
2
Frame 768   E = -75.33353547 Ha
O   0.000000  0.046579 -0.029886
H  -0.000000 -0.739240  0.541909
2
Frame 769   E = -75.33381513 Ha
O   0.000000  0.046558 -0.029292
H  -0.000000 -0.738897  0.532494
2
Frame 770   E = -75.33404424 Ha
O   0.000000  0.046502 -0.028677
H  -0.000000 -0.738016  0.522727
2
Frame 771   E = -75.33419180 Ha
O   0.000000  0.046422 -0.028047
H  -0.000000 -0.736751  0.512723
2
Frame 772   E = -75.33423492 Ha
O   0.000000  0.046330 -0.027409
H  -0.000000 -0.735279  0.502608
2
Frame 773   E = -75.33416323 Ha
O   0.000000  0.046236 -0.026773
H  -0.000000 -0.733791  0.492515
2
Frame 774   E = -75.33398228 Ha
O   0.000000  0.046154 -0.026147
H  -0.000000 -0.732492  0.482579
2
Frame 775   E = -75.33371489 Ha
O   0.000000  0.046097 -0.025539
H  -0.000000 -0.731589  0.472932
2
Frame 776   E = -75.33339954 Ha
O   0.000000  0.046078 -0.024958
H  -0.000000 -0.731284  0.463698
2
Frame 777   E = -75.33308524 Ha
O   0.000000  0.046108 -0.024409
H  -0.000000 -0.731759  0.454985
2
Frame 778   E = -75.33282334 Ha
O   0.000000  0.046197 -0.023898
H  -0.000000 -0.733173  0.446879
2
Frame 779   E = -75.33265762 Ha
O   0.000000  0.046352 -0.023429
H  -0.000000 -0.735641  0.439439
2
Frame 780   E = -75.33261520 Ha
O   0.000000  0.046579 -0.023004
H  -0.000000 -0.739233  0.432695
2
Frame 781   E = -75.33270053 Ha
O   0.000000  0.046877 -0.022623
H  -0.000000 -0.743966  0.426642
2
Frame 782   E = -75.33289440 Ha
O   0.000000  0.047245 -0.022283
H  -0.000000 -0.749799  0.421246
2
Frame 783   E = -75.33315814 Ha
O   0.000000  0.047676 -0.021980
H  -0.000000 -0.756641  0.416444
2
Frame 784   E = -75.33344197 Ha
O   0.000000  0.048162 -0.021710
H  -0.000000 -0.764355  0.412151
2
Frame 785   E = -75.33369481 Ha
O   0.000000  0.048691 -0.021465
H  -0.000000 -0.772763  0.408268
2
Frame 786   E = -75.33387350 Ha
O   0.000000  0.049252 -0.021239
H  -0.000000 -0.781665  0.404682
2
Frame 787   E = -75.33394917 Ha
O   0.000000  0.049831 -0.021025
H  -0.000000 -0.790845  0.401282
2
Frame 788   E = -75.33391022 Ha
O   0.000000  0.050413 -0.020815
H  -0.000000 -0.800080  0.397956
2
Frame 789   E = -75.33376197 Ha
O   0.000000  0.050985 -0.020604
H  -0.000000 -0.809156  0.394601
2
Frame 790   E = -75.33352385 Ha
O   0.000000  0.051533 -0.020385
H  -0.000000 -0.817867  0.391123
2
Frame 791   E = -75.33322520 Ha
O   0.000000  0.052048 -0.020153
H  -0.000000 -0.826029  0.387441
2
Frame 792   E = -75.33290063 Ha
O   0.000000  0.052517 -0.019904
H  -0.000000 -0.833477  0.383487
2
Frame 793   E = -75.33258561 Ha
O   0.000000  0.052932 -0.019634
H  -0.000000 -0.840071  0.379206
2
Frame 794   E = -75.33231278 Ha
O   0.000000  0.053287 -0.019341
H  -0.000000 -0.845698  0.374557
2
Frame 795   E = -75.33210900 Ha
O   0.000000  0.053575 -0.019023
H  -0.000000 -0.850272  0.369514
2
Frame 796   E = -75.33199327 Ha
O   0.000000  0.053793 -0.018680
H  -0.000000 -0.853733  0.364060
2
Frame 797   E = -75.33197539 Ha
O   0.000000  0.053939 -0.018310
H  -0.000000 -0.856050  0.358193
2
Frame 798   E = -75.33205525 Ha
O   0.000000  0.054013 -0.017915
H  -0.000000 -0.857222  0.351922
2
Frame 799   E = -75.33222283 Ha
O   0.000000  0.054016 -0.017495
H  -0.000000 -0.857273  0.345267
2
Frame 800   E = -75.33245871 Ha
O   0.000000  0.053952 -0.017054
H  -0.000000 -0.856258  0.338257
2
Frame 801   E = -75.33273543 Ha
O   0.000000  0.053827 -0.016592
H  -0.000000 -0.854262  0.330933
2
Frame 802   E = -75.33301953 Ha
O   0.000000  0.053646 -0.016114
H  -0.000000 -0.851397  0.323345
2
Frame 803   E = -75.33327452 Ha
O   0.000000  0.053420 -0.015623
H  -0.000000 -0.847806  0.315549
2
Frame 804   E = -75.33346479 Ha
O   0.000000  0.053159 -0.015123
H  -0.000000 -0.843659  0.307614
2
Frame 805   E = -75.33356021 Ha
O   0.000000  0.052875 -0.014619
H  -0.000000 -0.839153  0.299610
2
Frame 806   E = -75.33354111 Ha
O   0.000000  0.052582 -0.014115
H  -0.000000 -0.834506  0.291615
2
Frame 807   E = -75.33340273 Ha
O   0.000000  0.052295 -0.013617
H  -0.000000 -0.829952  0.283709
2
Frame 808   E = -75.33315827 Ha
O   0.000000  0.052029 -0.013129
H  -0.000000 -0.825735  0.275970
2
Frame 809   E = -75.33283922 Ha
O   0.000000  0.051800 -0.012657
H  -0.000000 -0.822097  0.268472
2
Frame 810   E = -75.33249209 Ha
O   0.000000  0.051621 -0.012204
H  -0.000000 -0.819264  0.261282
2
Frame 811   E = -75.33217140 Ha
O   0.000000  0.051506 -0.011773
H  -0.000000 -0.817439  0.254454
2
Frame 812   E = -75.33192970 Ha
O   0.000000  0.051465 -0.011369
H  -0.000000 -0.816782  0.248030
2
Frame 813   E = -75.33180688 Ha
O   0.000000  0.051504 -0.010991
H  -0.000000 -0.817401  0.242031
2
Frame 814   E = -75.33182143 Ha
O   0.000000  0.051627 -0.010640
H  -0.000000 -0.819346  0.236462
2
Frame 815   E = -75.33196620 Ha
O   0.000000  0.051832 -0.010315
H  -0.000000 -0.822603  0.231309
2
Frame 816   E = -75.33221003 Ha
O   0.000000  0.052115 -0.010015
H  -0.000000 -0.827093  0.226543
2
Frame 817   E = -75.33250465 Ha
O   0.000000  0.052467 -0.009736
H  -0.000000 -0.832680  0.222119
2
Frame 818   E = -75.33279494 Ha
O   0.000000  0.052876 -0.009475
H  -0.000000 -0.839182  0.217984
2
Frame 819   E = -75.33302957 Ha
O   0.000000  0.053330 -0.009229
H  -0.000000 -0.846380  0.214079
2
Frame 820   E = -75.33316967 Ha
O   0.000000  0.053812 -0.008994
H  -0.000000 -0.854034  0.210343
2
Frame 821   E = -75.33319386 Ha
O   0.000000  0.054308 -0.008765
H  -0.000000 -0.861894  0.206715
2
Frame 822   E = -75.33309956 Ha
O   0.000000  0.054800 -0.008540
H  -0.000000 -0.869712  0.203141
2
Frame 823   E = -75.33290101 Ha
O   0.000000  0.055275 -0.008315
H  -0.000000 -0.877253  0.199569
2
Frame 824   E = -75.33262521 Ha
O   0.000000  0.055719 -0.008088
H  -0.000000 -0.884300  0.195957
2
Frame 825   E = -75.33230698 Ha
O   0.000000  0.056120 -0.007855
H  -0.000000 -0.890659  0.192269
2
Frame 826   E = -75.33198394 Ha
O   0.000000  0.056467 -0.007616
H  -0.000000 -0.896167  0.188476
2
Frame 827   E = -75.33169214 Ha
O   0.000000  0.056752 -0.007369
H  -0.000000 -0.900687  0.184560
2
Frame 828   E = -75.33146245 Ha
O   0.000000  0.056968 -0.007114
H  -0.000000 -0.904116  0.180505
2
Frame 829   E = -75.33131797 Ha
O   0.000000  0.057111 -0.006849
H  -0.000000 -0.906380  0.176304
2
Frame 830   E = -75.33127225 Ha
O   0.000000  0.057177 -0.006575
H  -0.000000 -0.907439  0.171958
2
Frame 831   E = -75.33132830 Ha
O   0.000000  0.057167 -0.006293
H  -0.000000 -0.907281  0.167469
2
Frame 832   E = -75.33147837 Ha
O   0.000000  0.057082 -0.006001
H  -0.000000 -0.905930  0.162849
2
Frame 833   E = -75.33170435 Ha
O   0.000000  0.056925 -0.005703
H  -0.000000 -0.903440  0.158112
2
Frame 834   E = -75.33197908 Ha
O   0.000000  0.056702 -0.005398
H  -0.000000 -0.899898  0.153275
2
Frame 835   E = -75.33226837 Ha
O   0.000000  0.056420 -0.005089
H  -0.000000 -0.895423  0.148363
2
Frame 836   E = -75.33253414 Ha
O   0.000000  0.056089 -0.004776
H  -0.000000 -0.890166  0.143400
2
Frame 837   E = -75.33273842 Ha
O   0.000000  0.055720 -0.004462
H  -0.000000 -0.884309  0.138417
2
Frame 838   E = -75.33284830 Ha
O   0.000000  0.055326 -0.004149
H  -0.000000 -0.878062  0.133444
2
Frame 839   E = -75.33284125 Ha
O   0.000000  0.054923 -0.003838
H  -0.000000 -0.871660  0.128515
2
Frame 840   E = -75.33271015 Ha
O   0.000000  0.054526 -0.003532
H  -0.000000 -0.865355  0.123663
2
Frame 841   E = -75.33246675 Ha
O   0.000000  0.054151 -0.003233
H  -0.000000 -0.859408  0.118920
2
Frame 842   E = -75.33214247 Ha
O   0.000000  0.053815 -0.002943
H  -0.000000 -0.854080  0.114316
2
Frame 843   E = -75.33178528 Ha
O   0.000000  0.053534 -0.002664
H  -0.000000 -0.849618  0.109876
2
Frame 844   E = -75.33145250 Ha
O   0.000000  0.053321 -0.002396
H  -0.000000 -0.846238  0.105622
2
Frame 845   E = -75.33120026 Ha
O   0.000000  0.053187 -0.002140
H  -0.000000 -0.844116  0.101568
2
Frame 846   E = -75.33107194 Ha
O   0.000000  0.053140 -0.001898
H  -0.000000 -0.843370  0.097720
2
Frame 847   E = -75.33108854 Ha
O   0.000000  0.053183 -0.001668
H  -0.000000 -0.844054  0.094077
2
Frame 848   E = -75.33124380 Ha
O   0.000000  0.053316 -0.001451
H  -0.000000 -0.846153  0.090633
2
Frame 849   E = -75.33150566 Ha
O   0.000000  0.053532 -0.001246
H  -0.000000 -0.849585  0.087372
2
Frame 850   E = -75.33182351 Ha
O   0.000000  0.053823 -0.001051
H  -0.000000 -0.854205  0.084278
2
Frame 851   E = -75.33213912 Ha
O   0.000000  0.054177 -0.000865
H  -0.000000 -0.859819  0.081329
2
Frame 852   E = -75.33239812 Ha
O   0.000000  0.054578 -0.000687
H  -0.000000 -0.866194  0.078504
2
Frame 853   E = -75.33255932 Ha
O   0.000000  0.055012 -0.000515
H  -0.000000 -0.873074  0.075779
2
Frame 854   E = -75.33260018 Ha
O   0.000000  0.055461 -0.000349
H  -0.000000 -0.880195  0.073136
2
Frame 855   E = -75.33251808 Ha
O   0.000000  0.055908 -0.000186
H  -0.000000 -0.887296  0.070556
2
Frame 856   E = -75.33232818 Ha
O   0.000000  0.056339 -0.000027
H  -0.000000 -0.894128  0.068025
2
Frame 857   E = -75.33205905 Ha
O   0.000000  0.056738  0.000131
H  -0.000000 -0.900464  0.065531
2
Frame 858   E = -75.33174728 Ha
O   0.000000  0.057093  0.000286
H  -0.000000 -0.906105  0.063065
2
Frame 859   E = -75.33143218 Ha
O   0.000000  0.057394  0.000440
H  -0.000000 -0.910880  0.060621
2
Frame 860   E = -75.33115106 Ha
O   0.000000  0.057632  0.000593
H  -0.000000 -0.914649  0.058195
2
Frame 861   E = -75.33093554 Ha
O   0.000000  0.057799  0.000745
H  -0.000000 -0.917308  0.055786
2
Frame 862   E = -75.33080875 Ha
O   0.000000  0.057892  0.000895
H  -0.000000 -0.918784  0.053394
2
Frame 863   E = -75.33078359 Ha
O   0.000000  0.057908  0.001045
H  -0.000000 -0.919039  0.051021
2
Frame 864   E = -75.33086176 Ha
O   0.000000  0.057847  0.001193
H  -0.000000 -0.918068  0.048671
2
Frame 865   E = -75.33103364 Ha
O   0.000000  0.057710  0.001339
H  -0.000000 -0.915899  0.046347
2
Frame 866   E = -75.33127889 Ha
O   0.000000  0.057502  0.001484
H  -0.000000 -0.912594  0.044053
2
Frame 867   E = -75.33156798 Ha
O   0.000000  0.057228  0.001626
H  -0.000000 -0.908251  0.041795
2
Frame 868   E = -75.33186455 Ha
O   0.000000  0.056897  0.001766
H  -0.000000 -0.902998  0.039578
2
Frame 869   E = -75.33212895 Ha
O   0.000000  0.056519  0.001903
H  -0.000000 -0.896999  0.037408
2
Frame 870   E = -75.33232266 Ha
O   0.000000  0.056107  0.002036
H  -0.000000 -0.890449  0.035290
2
Frame 871   E = -75.33241365 Ha
O   0.000000  0.055673  0.002166
H  -0.000000 -0.883568  0.033231
2
Frame 872   E = -75.33238195 Ha
O   0.000000  0.055234  0.002292
H  -0.000000 -0.876604  0.031234
2
Frame 873   E = -75.33222462 Ha
O   0.000000  0.054807  0.002413
H  -0.000000 -0.869819  0.029306
2
Frame 874   E = -75.33195887 Ha
O   0.000000  0.054408  0.002530
H  -0.000000 -0.863482  0.027448
2
Frame 875   E = -75.33162187 Ha
O   0.000000  0.054053  0.002642
H  -0.000000 -0.857859  0.025666
2
Frame 876   E = -75.33126646 Ha
O   0.000000  0.053759  0.002750
H  -0.000000 -0.853195  0.023960
2
Frame 877   E = -75.33095256 Ha
O   0.000000  0.053539  0.002853
H  -0.000000 -0.849702  0.022330
2
Frame 878   E = -75.33073567 Ha
O   0.000000  0.053403  0.002950
H  -0.000000 -0.847544  0.020778
2
Frame 879   E = -75.33065501 Ha
O   0.000000  0.053358  0.003043
H  -0.000000 -0.846825  0.019300
2
Frame 880   E = -75.33072465 Ha
O   0.000000  0.053406  0.003132
H  -0.000000 -0.847580  0.017896
2
Frame 881   E = -75.33093017 Ha
O   0.000000  0.053544  0.003216
H  -0.000000 -0.849772  0.016561
2
Frame 882   E = -75.33123204 Ha
O   0.000000  0.053766  0.003296
H  -0.000000 -0.853299  0.015294
2
Frame 883   E = -75.33157460 Ha
O   0.000000  0.054062  0.003372
H  -0.000000 -0.857995  0.014092
2
Frame 884   E = -75.33189789 Ha
O   0.000000  0.054418  0.003443
H  -0.000000 -0.863648  0.012953
2
Frame 885   E = -75.33214917 Ha
O   0.000000  0.054819  0.003511
H  -0.000000 -0.870011  0.011877
2
Frame 886   E = -75.33229151 Ha
O   0.000000  0.055248  0.003575
H  -0.000000 -0.876819  0.010863
2
Frame 887   E = -75.33230804 Ha
O   0.000000  0.055688  0.003635
H  -0.000000 -0.883803  0.009912
2
Frame 888   E = -75.33220209 Ha
O   0.000000  0.056122  0.003691
H  -0.000000 -0.890699  0.009027
2
Frame 889   E = -75.33199406 Ha
O   0.000000  0.056536  0.003742
H  -0.000000 -0.897261  0.008209
2
Frame 890   E = -75.33171637 Ha
O   0.000000  0.056914  0.003789
H  -0.000000 -0.903267  0.007461
2
Frame 891   E = -75.33140787 Ha
O   0.000000  0.057246  0.003832
H  -0.000000 -0.908522  0.006786
2
Frame 892   E = -75.33110850 Ha
O   0.000000  0.057519  0.003870
H  -0.000000 -0.912865  0.006187
2
Frame 893   E = -75.33085469 Ha
O   0.000000  0.057727  0.003903
H  -0.000000 -0.916166  0.005666
2
Frame 894   E = -75.33067596 Ha
O   0.000000  0.057863  0.003930
H  -0.000000 -0.918329  0.005226
2
Frame 895   E = -75.33059238 Ha
O   0.000000  0.057924  0.003953
H  -0.000000 -0.919293  0.004868
2
Frame 896   E = -75.33061309 Ha
O   0.000000  0.057908  0.003970
H  -0.000000 -0.919031  0.004593
2
Frame 897   E = -75.33073568 Ha
O   0.000000  0.057814  0.003982
H  -0.000000 -0.917551  0.004401
2
Frame 898   E = -75.33094632 Ha
O   0.000000  0.057647  0.003989
H  -0.000000 -0.914893  0.004292
2
Frame 899   E = -75.33122076 Ha
O   0.000000  0.057410  0.003991
H  -0.000000 -0.911133  0.004265
2
Frame 900   E = -75.33152621 Ha
O   0.000000  0.057111  0.003988
H  -0.000000 -0.906381  0.004317
2
Frame 901   E = -75.33182425 Ha
O   0.000000  0.056758  0.003979
H  -0.000000 -0.900781  0.004447
2
Frame 902   E = -75.33207472 Ha
O   0.000000  0.056362  0.003967
H  -0.000000 -0.894508  0.004651
2
Frame 903   E = -75.33224068 Ha
O   0.000000  0.055938  0.003949
H  -0.000000 -0.887769  0.004926
2
Frame 904   E = -75.33229400 Ha
O   0.000000  0.055499  0.003928
H  -0.000000 -0.880797  0.005268
2
Frame 905   E = -75.33222083 Ha
O   0.000000  0.055061  0.003902
H  -0.000000 -0.873847  0.005674
2
Frame 906   E = -75.33202605 Ha
O   0.000000  0.054641  0.003873
H  -0.000000 -0.867187  0.006141
2
Frame 907   E = -75.33173522 Ha
O   0.000000  0.054257  0.003840
H  -0.000000 -0.861086  0.006667
2
Frame 908   E = -75.33139282 Ha
O   0.000000  0.053924  0.003803
H  -0.000000 -0.855805  0.007248
2
Frame 909   E = -75.33105602 Ha
O   0.000000  0.053658  0.003763
H  -0.000000 -0.851578  0.007885
2
Frame 910   E = -75.33078471 Ha
O   0.000000  0.053470  0.003719
H  -0.000000 -0.848599  0.008575
2
Frame 911   E = -75.33062931 Ha
O   0.000000  0.053370  0.003672
H  -0.000000 -0.847009  0.009320
2
Frame 912   E = -75.33061975 Ha
O   0.000000  0.053362  0.003622
H  -0.000000 -0.846885  0.010121
2
Frame 913   E = -75.33075853 Ha
O   0.000000  0.053447  0.003568
H  -0.000000 -0.848233  0.010978
2
Frame 914   E = -75.33102013 Ha
O   0.000000  0.053620  0.003510
H  -0.000000 -0.850989  0.011894
2
Frame 915   E = -75.33135698 Ha
O   0.000000  0.053874  0.003449
H  -0.000000 -0.855021  0.012870
2
Frame 916   E = -75.33171000 Ha
O   0.000000  0.054197  0.003383
H  -0.000000 -0.860143  0.013908
2
Frame 917   E = -75.33202075 Ha
O   0.000000  0.054574  0.003314
H  -0.000000 -0.866128  0.015009
2
Frame 918   E = -75.33224202 Ha
O   0.000000  0.054990  0.003240
H  -0.000000 -0.872718  0.016174
2
Frame 919   E = -75.33234470 Ha
O   0.000000  0.055426  0.003163
H  -0.000000 -0.879645  0.017403
2
Frame 920   E = -75.33232034 Ha
O   0.000000  0.055867  0.003081
H  -0.000000 -0.886639  0.018697
2
Frame 921   E = -75.33217968 Ha
O   0.000000  0.056295  0.002996
H  -0.000000 -0.893445  0.020056
2
Frame 922   E = -75.33194863 Ha
O   0.000000  0.056697  0.002906
H  -0.000000 -0.899823  0.021477
2
Frame 923   E = -75.33166285 Ha
O   0.000000  0.057059  0.002813
H  -0.000000 -0.905564  0.022960
2
Frame 924   E = -75.33136216 Ha
O   0.000000  0.057369  0.002716
H  -0.000000 -0.910485  0.024504
2
Frame 925   E = -75.33108545 Ha
O   0.000000  0.057618  0.002615
H  -0.000000 -0.914437  0.026105
2
Frame 926   E = -75.33086665 Ha
O   0.000000  0.057799  0.002510
H  -0.000000 -0.917304  0.027762
2
Frame 927   E = -75.33073165 Ha
O   0.000000  0.057906  0.002402
H  -0.000000 -0.919004  0.029473
2
Frame 928   E = -75.33069631 Ha
O   0.000000  0.057937  0.002292
H  -0.000000 -0.919491  0.031234
2
Frame 929   E = -75.33076530 Ha
O   0.000000  0.057890  0.002177
H  -0.000000 -0.918749  0.033044
2
Frame 930   E = -75.33093180 Ha
O   0.000000  0.057767  0.002061
H  -0.000000 -0.916799  0.034900
2
Frame 931   E = -75.33117806 Ha
O   0.000000  0.057571  0.001941
H  -0.000000 -0.913695  0.036800
2
Frame 932   E = -75.33147663 Ha
O   0.000000  0.057309  0.001818
H  -0.000000 -0.909524  0.038744
2
Frame 933   E = -75.33179267 Ha
O   0.000000  0.056986  0.001693
H  -0.000000 -0.904408  0.040731
2
Frame 934   E = -75.33208710 Ha
O   0.000000  0.056614  0.001565
H  -0.000000 -0.898501  0.042763
2
Frame 935   E = -75.33232092 Ha
O   0.000000  0.056204  0.001434
H  -0.000000 -0.891988  0.044843
2
Frame 936   E = -75.33246026 Ha
O   0.000000  0.055769  0.001300
H  -0.000000 -0.885085  0.046976
2
Frame 937   E = -75.33248189 Ha
O   0.000000  0.055324  0.001162
H  -0.000000 -0.878031  0.049168
2
Frame 938   E = -75.33237842 Ha
O   0.000000  0.054886  0.001019
H  -0.000000 -0.871082  0.051429
2
Frame 939   E = -75.33216176 Ha
O   0.000000  0.054472  0.000872
H  -0.000000 -0.864505  0.053770
2
Frame 940   E = -75.33186392 Ha
O   0.000000  0.054098  0.000718
H  -0.000000 -0.858564  0.056204
2
Frame 941   E = -75.33153372 Ha
O   0.000000  0.053779  0.000558
H  -0.000000 -0.853508  0.058744
2
Frame 942   E = -75.33122931 Ha
O   0.000000  0.053530  0.000390
H  -0.000000 -0.849556  0.061406
2
Frame 943   E = -75.33100745 Ha
O   0.000000  0.053362  0.000214
H  -0.000000 -0.846882  0.064204
2
Frame 944   E = -75.33091165 Ha
O   0.000000  0.053281  0.000029
H  -0.000000 -0.845604  0.067147
2
Frame 945   E = -75.33096256 Ha
O   0.000000  0.053292 -0.000167
H  -0.000000 -0.845774  0.070245
2
Frame 946   E = -75.33115314 Ha
O   0.000000  0.053393 -0.000372
H  -0.000000 -0.847373  0.073503
2
Frame 947   E = -75.33145038 Ha
O   0.000000  0.053578 -0.000587
H  -0.000000 -0.850315  0.076918
2
Frame 948   E = -75.33180279 Ha
O   0.000000  0.053839 -0.000812
H  -0.000000 -0.854452  0.080485
2
Frame 949   E = -75.33215156 Ha
O   0.000000  0.054162 -0.001045
H  -0.000000 -0.859586  0.084193
2
Frame 950   E = -75.33244212 Ha
O   0.000000  0.054533 -0.001287
H  -0.000000 -0.865480  0.088027
2
Frame 951   E = -75.33263344 Ha
O   0.000000  0.054937 -0.001535
H  -0.000000 -0.871878  0.091967
2
Frame 952   E = -75.33270330 Ha
O   0.000000  0.055355 -0.001789
H  -0.000000 -0.878513  0.095993
2
Frame 953   E = -75.33264946 Ha
O   0.000000  0.055771 -0.002047
H  -0.000000 -0.885125  0.100082
2
Frame 954   E = -75.33248737 Ha
O   0.000000  0.056171 -0.002307
H  -0.000000 -0.891467  0.104210
2
Frame 955   E = -75.33224569 Ha
O   0.000000  0.056539 -0.002568
H  -0.000000 -0.897311  0.108354
2
Frame 956   E = -75.33196092 Ha
O   0.000000  0.056864 -0.002828
H  -0.000000 -0.902461  0.112492
2
Frame 957   E = -75.33167208 Ha
O   0.000000  0.057134 -0.003088
H  -0.000000 -0.906746  0.116605
2
Frame 958   E = -75.33141615 Ha
O   0.000000  0.057341 -0.003344
H  -0.000000 -0.910030  0.120674
2
Frame 959   E = -75.33122440 Ha
O   0.000000  0.057478 -0.003597
H  -0.000000 -0.912208  0.124684
2
Frame 960   E = -75.33111978 Ha
O   0.000000  0.057541 -0.003845
H  -0.000000 -0.913209  0.128621
2
Frame 961   E = -75.33111526 Ha
O   0.000000  0.057527 -0.004088
H  -0.000000 -0.912995  0.132477
2
Frame 962   E = -75.33121294 Ha
O   0.000000  0.057437 -0.004325
H  -0.000000 -0.911560  0.136246
2
Frame 963   E = -75.33140400 Ha
O   0.000000  0.057271 -0.004557
H  -0.000000 -0.908929  0.139925
2
Frame 964   E = -75.33166933 Ha
O   0.000000  0.057034 -0.004783
H  -0.000000 -0.905164  0.143517
2
Frame 965   E = -75.33198095 Ha
O   0.000000  0.056731 -0.005005
H  -0.000000 -0.900353  0.147029
2
Frame 966   E = -75.33230428 Ha
O   0.000000  0.056370 -0.005222
H  -0.000000 -0.894622  0.150473
2
Frame 967   E = -75.33260138 Ha
O   0.000000  0.055960 -0.005435
H  -0.000000 -0.888124  0.153867
2
Frame 968   E = -75.33283508 Ha
O   0.000000  0.055514 -0.005648
H  -0.000000 -0.881043  0.157236
2
Frame 969   E = -75.33297386 Ha
O   0.000000  0.055044 -0.005860
H  -0.000000 -0.873590  0.160609
2
Frame 970   E = -75.33299706 Ha
O   0.000000  0.054566 -0.006075
H  -0.000000 -0.865997  0.164023
2
Frame 971   E = -75.33289958 Ha
O   0.000000  0.054094 -0.006296
H  -0.000000 -0.858512  0.167519
2
Frame 972   E = -75.33269493 Ha
O   0.000000  0.053646 -0.006524
H  -0.000000 -0.851392  0.171142
2
Frame 973   E = -75.33241551 Ha
O   0.000000  0.053236 -0.006763
H  -0.000000 -0.844888  0.174942
2
Frame 974   E = -75.33210908 Ha
O   0.000000  0.052880 -0.007017
H  -0.000000 -0.839235  0.178966
2
Frame 975   E = -75.33183140 Ha
O   0.000000  0.052590 -0.007287
H  -0.000000 -0.834637  0.183259
2
Frame 976   E = -75.33163587 Ha
O   0.000000  0.052377 -0.007577
H  -0.000000 -0.831255  0.187861
2
Frame 977   E = -75.33156257 Ha
O   0.000000  0.052247 -0.007889
H  -0.000000 -0.829196  0.192801
2
Frame 978   E = -75.33162937 Ha
O   0.000000  0.052203 -0.008222
H  -0.000000 -0.828502  0.198098
2
Frame 979   E = -75.33182796 Ha
O   0.000000  0.052244 -0.008579
H  -0.000000 -0.829150  0.203755
2
Frame 980   E = -75.33212572 Ha
O   0.000000  0.052364 -0.008957
H  -0.000000 -0.831054  0.209760
2
Frame 981   E = -75.33247308 Ha
O   0.000000  0.052554 -0.009356
H  -0.000000 -0.834069  0.216088
2
Frame 982   E = -75.33281403 Ha
O   0.000000  0.052802 -0.009773
H  -0.000000 -0.838004  0.222701
2
Frame 983   E = -75.33309692 Ha
O   0.000000  0.053094 -0.010204
H  -0.000000 -0.842636  0.229546
2
Frame 984   E = -75.33328302 Ha
O   0.000000  0.053414 -0.010646
H  -0.000000 -0.847719  0.236568
2
Frame 985   E = -75.33335144 Ha
O   0.000000  0.053747 -0.011096
H  -0.000000 -0.853003  0.243703
2
Frame 986   E = -75.33330016 Ha
O   0.000000  0.054077 -0.011549
H  -0.000000 -0.858242  0.250886
2
Frame 987   E = -75.33314379 Ha
O   0.000000  0.054390 -0.012000
H  -0.000000 -0.863203  0.258053
2
Frame 988   E = -75.33290949 Ha
O   0.000000  0.054672 -0.012447
H  -0.000000 -0.867675  0.265143
2
Frame 989   E = -75.33263193 Ha
O   0.000000  0.054911 -0.012885
H  -0.000000 -0.871470  0.272099
2
Frame 990   E = -75.33234834 Ha
O   0.000000  0.055097 -0.013312
H  -0.000000 -0.874430  0.278870
2
Frame 991   E = -75.33209425 Ha
O   0.000000  0.055223 -0.013724
H  -0.000000 -0.876427  0.285411
2
Frame 992   E = -75.33190003 Ha
O   0.000000  0.055282 -0.014119
H  -0.000000 -0.877362  0.291686
2
Frame 993   E = -75.33178848 Ha
O   0.000000  0.055270 -0.014496
H  -0.000000 -0.877167  0.297666
2
Frame 994   E = -75.33177319 Ha
O   0.000000  0.055184 -0.014853
H  -0.000000 -0.875804  0.303331
2
Frame 995   E = -75.33185772 Ha
O   0.000000  0.055024 -0.015189
H  -0.000000 -0.873265  0.308670
2
Frame 996   E = -75.33203542 Ha
O   0.000000  0.054791 -0.015505
H  -0.000000 -0.869571  0.313680
2
Frame 997   E = -75.33228993 Ha
O   0.000000  0.054489 -0.015801
H  -0.000000 -0.864773  0.318371
2
Frame 998   E = -75.33259631 Ha
O   0.000000  0.054122 -0.016077
H  -0.000000 -0.858951  0.322761
2
Frame 999   E = -75.33292299 Ha
O   0.000000  0.053698 -0.016337
H  -0.000000 -0.852213  0.326881
2
Frame 1000   E = -75.33323446 Ha
O   0.000000  0.053224 -0.016582
H  -0.000000 -0.844695  0.330771
2
Frame 1001   E = -75.33349489 Ha
O   0.000000  0.052711 -0.016816
H  -0.000000 -0.836561  0.334486
2
Frame 1002   E = -75.33367240 Ha
O   0.000000  0.052172 -0.017043
H  -0.000000 -0.827995  0.338092
2
Frame 1003   E = -75.33374387 Ha
O   0.000000  0.051618 -0.017268
H  -0.000000 -0.819207  0.341664
2
Frame 1004   E = -75.33369941 Ha
O   0.000000  0.051064 -0.017497
H  -0.000000 -0.810417  0.345289
2
Frame 1005   E = -75.33354578 Ha
O   0.000000  0.050525 -0.017734
H  -0.000000 -0.801857  0.349060
2
Frame 1006   E = -75.33330757 Ha
O   0.000000  0.050014 -0.017987
H  -0.000000 -0.793754  0.353075
2
Frame 1007   E = -75.33302516 Ha
O   0.000000  0.049546 -0.018262
H  -0.000000 -0.786327  0.357431
2
Frame 1008   E = -75.33274910 Ha
O   0.000000  0.049133 -0.018563
H  -0.000000 -0.779768  0.362218
2
Frame 1009   E = -75.33253143 Ha
O   0.000000  0.048784 -0.018897
H  -0.000000 -0.774234  0.367515
2
Frame 1010   E = -75.33241544 Ha
O   0.000000  0.048507 -0.019267
H  -0.000000 -0.769838  0.373383
2
Frame 1011   E = -75.33242661 Ha
O   0.000000  0.048305 -0.019675
H  -0.000000 -0.766636  0.379861
2
Frame 1012   E = -75.33256691 Ha
O   0.000000  0.048179 -0.020122
H  -0.000000 -0.764629  0.386960
2
Frame 1013   E = -75.33281441 Ha
O   0.000000  0.048124 -0.020608
H  -0.000000 -0.763758  0.394663
2
Frame 1014   E = -75.33312817 Ha
O   0.000000  0.048134 -0.021129
H  -0.000000 -0.763914  0.402927
2
Frame 1015   E = -75.33345700 Ha
O   0.000000  0.048199 -0.021680
H  -0.000000 -0.764942  0.411683
2
Frame 1016   E = -75.33374958 Ha
O   0.000000  0.048307 -0.022257
H  -0.000000 -0.766655  0.420842
2
Frame 1017   E = -75.33396344 Ha
O   0.000000  0.048444 -0.022853
H  -0.000000 -0.768843  0.430297
2
Frame 1018   E = -75.33407111 Ha
O   0.000000  0.048599 -0.023460
H  -0.000000 -0.771288  0.439935
2
Frame 1019   E = -75.33406260 Ha
O   0.000000  0.048755 -0.024072
H  -0.000000 -0.773772  0.449637
2
Frame 1020   E = -75.33394468 Ha
O   0.000000  0.048901 -0.024680
H  -0.000000 -0.776087  0.459284
2
Frame 1021   E = -75.33373782 Ha
O   0.000000  0.049024 -0.025277
H  -0.000000 -0.778041  0.468763
2
Frame 1022   E = -75.33347187 Ha
O   0.000000  0.049114 -0.025857
H  -0.000000 -0.779463  0.477969
2
Frame 1023   E = -75.33318137 Ha
O   0.000000  0.049160 -0.026414
H  -0.000000 -0.780205  0.486807
2
Frame 1024   E = -75.33290133 Ha
O   0.000000  0.049157 -0.026942
H  -0.000000 -0.780145  0.495195
2
Frame 1025   E = -75.33266363 Ha
O   0.000000  0.049096 -0.027438
H  -0.000000 -0.779187  0.503064
2
Frame 1026   E = -75.33249428 Ha
O   0.000000  0.048975 -0.027898
H  -0.000000 -0.777262  0.510358
2
Frame 1027   E = -75.33241156 Ha
O   0.000000  0.048790 -0.028319
H  -0.000000 -0.774325  0.517038
2
Frame 1028   E = -75.33242480 Ha
O   0.000000  0.048540 -0.028699
H  -0.000000 -0.770357  0.523080
2
Frame 1029   E = -75.33253388 Ha
O   0.000000  0.048225 -0.029039
H  -0.000000 -0.765365  0.528473
2
Frame 1030   E = -75.33272925 Ha
O   0.000000  0.047848 -0.029339
H  -0.000000 -0.759379  0.533226
2
Frame 1031   E = -75.33299256 Ha
O   0.000000  0.047412 -0.029599
H  -0.000000 -0.752453  0.537363
2
Frame 1032   E = -75.33329790 Ha
O   0.000000  0.046921 -0.029824
H  -0.000000 -0.744665  0.540926
2
Frame 1033   E = -75.33361373 Ha
O   0.000000  0.046382 -0.030016
H  -0.000000 -0.736117  0.543974
2
Frame 1034   E = -75.33390564 Ha
O   0.000000  0.045804 -0.030180
H  -0.000000 -0.726931  0.546587
2
Frame 1035   E = -75.33413980 Ha
O   0.000000  0.045194 -0.030324
H  -0.000000 -0.717251  0.548860
2
Frame 1036   E = -75.33428714 Ha
O   0.000000  0.044563 -0.030453
H  -0.000000 -0.707239  0.550907
2
Frame 1037   E = -75.33432784 Ha
O   0.000000  0.043922 -0.030576
H  -0.000000 -0.697072  0.552858
2
Frame 1038   E = -75.33425539 Ha
O   0.000000  0.043284 -0.030701
H  -0.000000 -0.686936  0.554855
2
Frame 1039   E = -75.33407949 Ha
O   0.000000  0.042659 -0.030840
H  -0.000000 -0.677022  0.557048
2
Frame 1040   E = -75.33382665 Ha
O   0.000000  0.042060 -0.031000
H  -0.000000 -0.667516  0.559592
2
Frame 1041   E = -75.33353770 Ha
O   0.000000  0.041498 -0.031191
H  -0.000000 -0.658592  0.562633
2
Frame 1042   E = -75.33326192 Ha
O   0.000000  0.040981 -0.031423
H  -0.000000 -0.650400  0.566309
2
Frame 1043   E = -75.33304847 Ha
O   0.000000  0.040519 -0.031702
H  -0.000000 -0.643061  0.570732
2
Frame 1044   E = -75.33293676 Ha
O   0.000000  0.040115 -0.032033
H  -0.000000 -0.636655  0.575987
2
Frame 1045   E = -75.33294815 Ha
O   0.000000  0.039773 -0.032419
H  -0.000000 -0.631217  0.582119
2
Frame 1046   E = -75.33308128 Ha
O   0.000000  0.039490 -0.032861
H  -0.000000 -0.626737  0.589135
2
Frame 1047   E = -75.33331236 Ha
O   0.000000  0.039265 -0.033357
H  -0.000000 -0.623160  0.596999
2
Frame 1048   E = -75.33360036 Ha
O   0.000000  0.039091 -0.033901
H  -0.000000 -0.620390  0.605636
2
Frame 1049   E = -75.33389564 Ha
O   0.000000  0.038959 -0.034487
H  -0.000000 -0.618299  0.614932
2
Frame 1050   E = -75.33414952 Ha
O   0.000000  0.038860 -0.035105
H  -0.000000 -0.616735  0.624750
2
Frame 1051   E = -75.33432260 Ha
O   0.000000  0.038784 -0.035747
H  -0.000000 -0.615530  0.634930
2
Frame 1052   E = -75.33439023 Ha
O   0.000000  0.038720 -0.036400
H  -0.000000 -0.614514  0.645301
2
Frame 1053   E = -75.33434461 Ha
O   0.000000  0.038658 -0.037055
H  -0.000000 -0.613519  0.655688
2
Frame 1054   E = -75.33419387 Ha
O   0.000000  0.038586 -0.037700
H  -0.000000 -0.612385  0.665922
2
Frame 1055   E = -75.33395898 Ha
O   0.000000  0.038497 -0.038325
H  -0.000000 -0.610968  0.675842
2
Frame 1056   E = -75.33366961 Ha
O   0.000000  0.038382 -0.038920
H  -0.000000 -0.609141  0.685298
2
Frame 1057   E = -75.33335969 Ha
O   0.000000  0.038234 -0.039479
H  -0.000000 -0.606796  0.694160
2
Frame 1058   E = -75.33306333 Ha
O   0.000000  0.038048 -0.039993
H  -0.000000 -0.603844  0.702316
2
Frame 1059   E = -75.33281143 Ha
O   0.000000  0.037820 -0.040456
H  -0.000000 -0.600220  0.709674
2
Frame 1060   E = -75.33262909 Ha
O   0.000000  0.037546 -0.040865
H  -0.000000 -0.595875  0.716161
2
Frame 1061   E = -75.33253377 Ha
O   0.000000  0.037225 -0.041216
H  -0.000000 -0.590782  0.721729
2
Frame 1062   E = -75.33253413 Ha
O   0.000000  0.036856 -0.041507
H  -0.000000 -0.584932  0.726349
2
Frame 1063   E = -75.33262953 Ha
O   0.000000  0.036441 -0.041738
H  -0.000000 -0.578336  0.730016
2
Frame 1064   E = -75.33280998 Ha
O   0.000000  0.035980 -0.041910
H  -0.000000 -0.571022  0.732748
2
Frame 1065   E = -75.33305680 Ha
O   0.000000  0.035477 -0.042026
H  -0.000000 -0.563035  0.734585
2
Frame 1066   E = -75.33334378 Ha
O   0.000000  0.034935 -0.042089
H  -0.000000 -0.554438  0.735593
2
Frame 1067   E = -75.33363914 Ha
O   0.000000  0.034360 -0.042106
H  -0.000000 -0.545310  0.735861
2
Frame 1068   E = -75.33390824 Ha
O   0.000000  0.033757 -0.042084
H  -0.000000 -0.535745  0.735501
2
Frame 1069   E = -75.33411714 Ha
O   0.000000  0.033134 -0.042030
H  -0.000000 -0.525852  0.734653
2
Frame 1070   E = -75.33423680 Ha
O   0.000000  0.032497 -0.041956
H  -0.000000 -0.515752  0.733474
2
Frame 1071   E = -75.33424765 Ha
O   0.000000  0.031856 -0.041872
H  -0.000000 -0.505576  0.732145
2
Frame 1072   E = -75.33414373 Ha
O   0.000000  0.031219 -0.041791
H  -0.000000 -0.495461  0.730859
2
Frame 1073   E = -75.33393563 Ha
O   0.000000  0.030594 -0.041726
H  -0.000000 -0.485543  0.729821
2
Frame 1074   E = -75.33365107 Ha
O   0.000000  0.029990 -0.041689
H  -0.000000 -0.475956  0.729233
2
Frame 1075   E = -75.33333219 Ha
O   0.000000  0.029414 -0.041693
H  -0.000000 -0.466823  0.729293
2
Frame 1076   E = -75.33302954 Ha
O   0.000000  0.028874 -0.041748
H  -0.000000 -0.458247  0.730176
2
Frame 1077   E = -75.33279316 Ha
O   0.000000  0.028374 -0.041865
H  -0.000000 -0.450309  0.732025
2
Frame 1078   E = -75.33266269 Ha
O   0.000000  0.027917 -0.042049
H  -0.000000 -0.443062  0.734945
2
Frame 1079   E = -75.33265896 Ha
O   0.000000  0.027505 -0.042303
H  -0.000000 -0.436524  0.738989
2
Frame 1080   E = -75.33277938 Ha
O   0.000000  0.027137 -0.042629
H  -0.000000 -0.430683  0.744157
2
Frame 1081   E = -75.33299844 Ha
O   0.000000  0.026810 -0.043022
H  -0.000000 -0.425496  0.750394
2
Frame 1082   E = -75.33327338 Ha
O   0.000000  0.026520 -0.043476
H  -0.000000 -0.420890  0.757596
2
Frame 1083   E = -75.33355312 Ha
O   0.000000  0.026261 -0.043981
H  -0.000000 -0.416775  0.765614
2
Frame 1084   E = -75.33378819 Ha
O   0.000000  0.026026 -0.044526
H  -0.000000 -0.413043  0.774264
2
Frame 1085   E = -75.33393914 Ha
O   0.000000  0.025808 -0.045098
H  -0.000000 -0.409580  0.783343
2
Frame 1086   E = -75.33398206 Ha
O   0.000000  0.025599 -0.045683
H  -0.000000 -0.406271  0.792632
2
Frame 1087   E = -75.33391041 Ha
O   0.000000  0.025393 -0.046268
H  -0.000000 -0.403004  0.801914
2
Frame 1088   E = -75.33373396 Ha
O   0.000000  0.025184 -0.046839
H  -0.000000 -0.399675  0.810976
2
Frame 1089   E = -75.33347540 Ha
O   0.000000  0.024964 -0.047384
H  -0.000000 -0.396192  0.819620
2
Frame 1090   E = -75.33316599 Ha
O   0.000000  0.024730 -0.047891
H  -0.000000 -0.392475  0.827668
2
Frame 1091   E = -75.33284093 Ha
O   0.000000  0.024477 -0.048351
H  -0.000000 -0.388458  0.834964
2
Frame 1092   E = -75.33253515 Ha
O   0.000000  0.024201 -0.048755
H  -0.000000 -0.384090  0.841376
2
Frame 1093   E = -75.33227981 Ha
O   0.000000  0.023902 -0.049096
H  -0.000000 -0.379331  0.846799
2
Frame 1094   E = -75.33209967 Ha
O   0.000000  0.023576 -0.049371
H  -0.000000 -0.374158  0.851154
2
Frame 1095   E = -75.33201119 Ha
O   0.000000  0.023223 -0.049575
H  -0.000000 -0.368558  0.854391
2
Frame 1096   E = -75.33202139 Ha
O   0.000000  0.022843 -0.049707
H  -0.000000 -0.362532  0.856487
2
Frame 1097   E = -75.33212738 Ha
O   0.000000  0.022437 -0.049767
H  -0.000000 -0.356091  0.857446
2
Frame 1098   E = -75.33231644 Ha
O   0.000000  0.022007 -0.049758
H  -0.000000 -0.349259  0.857302
2
Frame 1099   E = -75.33256682 Ha
O   0.000000  0.021554 -0.049684
H  -0.000000 -0.342070  0.856118
2
Frame 1100   E = -75.33284922 Ha
O   0.000000  0.021081 -0.049549
H  -0.000000 -0.334568  0.853984
2
Frame 1101   E = -75.33312909 Ha
O   0.000000  0.020592 -0.049363
H  -0.000000 -0.326805  0.851021
2
Frame 1102   E = -75.33336986 Ha
O   0.000000  0.020090 -0.049133
H  -0.000000 -0.318844  0.847379
2
Frame 1103   E = -75.33353705 Ha
O   0.000000  0.019581 -0.048872
H  -0.000000 -0.310756  0.843233
2
Frame 1104   E = -75.33360297 Ha
O   0.000000  0.019068 -0.048592
H  -0.000000 -0.302616  0.838787
2
Frame 1105   E = -75.33355164 Ha
O   0.000000  0.018557 -0.048306
H  -0.000000 -0.294505  0.834261
2
Frame 1106   E = -75.33338301 Ha
O   0.000000  0.018053 -0.048031
H  -0.000000 -0.286504  0.829892
2
Frame 1107   E = -75.33311529 Ha
O   0.000000  0.017561 -0.047781
H  -0.000000 -0.278694  0.825923
2
Frame 1108   E = -75.33278443 Ha
O   0.000000  0.017085 -0.047571
H  -0.000000 -0.271150  0.822592
2
Frame 1109   E = -75.33243979 Ha
O   0.000000  0.016631 -0.047415
H  -0.000000 -0.263938  0.820120
2
Frame 1110   E = -75.33213626 Ha
O   0.000000  0.016201 -0.047326
H  -0.000000 -0.257111  0.818696
2
Frame 1111   E = -75.33192383 Ha
O   0.000000  0.015797 -0.047311
H  -0.000000 -0.250705  0.818468
2
Frame 1112   E = -75.33183724 Ha
O   0.000000  0.015421 -0.047378
H  -0.000000 -0.244740  0.819529
2
Frame 1113   E = -75.33188821 Ha
O   0.000000  0.015073 -0.047528
H  -0.000000 -0.239215  0.821912
2
Frame 1114   E = -75.33206280 Ha
O   0.000000  0.014752 -0.047760
H  -0.000000 -0.234112  0.825585
2
Frame 1115   E = -75.33232450 Ha
O   0.000000  0.014454 -0.048067
H  -0.000000 -0.229395  0.830453
2
Frame 1116   E = -75.33262230 Ha
O   0.000000  0.014178 -0.048439
H  -0.000000 -0.225016  0.836369
2
Frame 1117   E = -75.33290126 Ha
O   0.000000  0.013920 -0.048866
H  -0.000000 -0.220918  0.843139
2
Frame 1118   E = -75.33311281 Ha
O   0.000000  0.013676 -0.049332
H  -0.000000 -0.217039  0.850540
2
Frame 1119   E = -75.33322250 Ha
O   0.000000  0.013441 -0.049823
H  -0.000000 -0.213315  0.858327
2
Frame 1120   E = -75.33321404 Ha
O   0.000000  0.013212 -0.050322
H  -0.000000 -0.209685  0.866252
2
Frame 1121   E = -75.33308961 Ha
O   0.000000  0.012986 -0.050815
H  -0.000000 -0.206093  0.874070
2
Frame 1122   E = -75.33286723 Ha
O   0.000000  0.012759 -0.051286
H  -0.000000 -0.202487  0.881551
2
Frame 1123   E = -75.33257638 Ha
O   0.000000  0.012528 -0.051723
H  -0.000000 -0.198826  0.888485
2
Frame 1124   E = -75.33225299 Ha
O   0.000000  0.012292 -0.052114
H  -0.000000 -0.195074  0.894686
2
Frame 1125   E = -75.33193459 Ha
O   0.000000  0.012048 -0.052449
H  -0.000000 -0.191203  0.899998
2
Frame 1126   E = -75.33165607 Ha
O   0.000000  0.011795 -0.052719
H  -0.000000 -0.187195  0.904294
2
Frame 1127   E = -75.33144645 Ha
O   0.000000  0.011533 -0.052920
H  -0.000000 -0.183035  0.907478
2
Frame 1128   E = -75.33132641 Ha
O   0.000000  0.011261 -0.053046
H  -0.000000 -0.178720  0.909485
2
Frame 1129   E = -75.33130683 Ha
O   0.000000  0.010980 -0.053096
H  -0.000000 -0.174249  0.910281
2
Frame 1130   E = -75.33138792 Ha
O   0.000000  0.010688 -0.053070
H  -0.000000 -0.169627  0.909866
2
Frame 1131   E = -75.33155921 Ha
O   0.000000  0.010389 -0.052970
H  -0.000000 -0.164868  0.908270
2
Frame 1132   E = -75.33180020 Ha
O   0.000000  0.010081 -0.052799
H  -0.000000 -0.159985  0.905555
2
Frame 1133   E = -75.33208173 Ha
O   0.000000  0.009767 -0.052563
H  -0.000000 -0.155002  0.901816
2
Frame 1134   E = -75.33236838 Ha
O   0.000000  0.009448 -0.052271
H  -0.000000 -0.149941  0.897181
2
Frame 1135   E = -75.33262174 Ha
O   0.000000  0.009126 -0.051932
H  -0.000000 -0.144831  0.891807
2
Frame 1136   E = -75.33280472 Ha
O   0.000000  0.008803 -0.051559
H  -0.000000 -0.139705  0.885883
2
Frame 1137   E = -75.33288657 Ha
O   0.000000  0.008481 -0.051165
H  -0.000000 -0.134594  0.879627
2
Frame 1138   E = -75.33284826 Ha
O   0.000000  0.008162 -0.050765
H  -0.000000 -0.129534  0.873275
2
Frame 1139   E = -75.33268714 Ha
O   0.000000  0.007849 -0.050375
H  -0.000000 -0.124560  0.867085
2
Frame 1140   E = -75.33241996 Ha
O   0.000000  0.007543 -0.050011
H  -0.000000 -0.119706  0.861317
2
Frame 1141   E = -75.33208263 Ha
O   0.000000  0.007247 -0.049691
H  -0.000000 -0.115002  0.856229
2
Frame 1142   E = -75.33172620 Ha
O   0.000000  0.006961 -0.049428
H  -0.000000 -0.110474  0.852062
2
Frame 1143   E = -75.33140863 Ha
O   0.000000  0.006688 -0.049237
H  -0.000000 -0.106144  0.849023
2
Frame 1144   E = -75.33118383 Ha
O   0.000000  0.006429 -0.049126
H  -0.000000 -0.102023  0.847273
2
Frame 1145   E = -75.33109027 Ha
O   0.000000  0.006183 -0.049104
H  -0.000000 -0.098118  0.846916
2
Frame 1146   E = -75.33114239 Ha
O   0.000000  0.005950 -0.049171
H  -0.000000 -0.094426  0.847988
2
Frame 1147   E = -75.33132715 Ha
O   0.000000  0.005730 -0.049327
H  -0.000000 -0.090938  0.850459
2
Frame 1148   E = -75.33160710 Ha
O   0.000000  0.005522 -0.049565
H  -0.000000 -0.087637  0.854228
2
Frame 1149   E = -75.33192877 Ha
O   0.000000  0.005325 -0.049874
H  -0.000000 -0.084504  0.859140
2
Frame 1150   E = -75.33223397 Ha
O   0.000000  0.005137 -0.050243
H  -0.000000 -0.081517  0.864988
2
Frame 1151   E = -75.33247095 Ha
O   0.000000  0.004956 -0.050655
H  -0.000000 -0.078650  0.871534
2
Frame 1152   E = -75.33260288 Ha
O   0.000000  0.004782 -0.051095
H  -0.000000 -0.075883  0.878518
2
Frame 1153   E = -75.33261218 Ha
O   0.000000  0.004612 -0.051546
H  -0.000000 -0.073192  0.885677
2
Frame 1154   E = -75.33250091 Ha
O   0.000000  0.004446 -0.051992
H  -0.000000 -0.070561  0.892752
2
Frame 1155   E = -75.33228798 Ha
O   0.000000  0.004283 -0.052417
H  -0.000000 -0.067974  0.899500
2
Frame 1156   E = -75.33200436 Ha
O   0.000000  0.004122 -0.052808
H  -0.000000 -0.065418  0.905701
2
Frame 1157   E = -75.33168775 Ha
O   0.000000  0.003963 -0.053152
H  -0.000000 -0.062884  0.911160
2
Frame 1158   E = -75.33137729 Ha
O   0.000000  0.003804 -0.053439
H  -0.000000 -0.060367  0.915717
2
Frame 1159   E = -75.33110916 Ha
O   0.000000  0.003646 -0.053661
H  -0.000000 -0.057863  0.919240
2
Frame 1160   E = -75.33091309 Ha
O   0.000000  0.003489 -0.053812
H  -0.000000 -0.055371  0.921631
2
Frame 1161   E = -75.33080982 Ha
O   0.000000  0.003333 -0.053887
H  -0.000000 -0.052890  0.922827
2
Frame 1162   E = -75.33080957 Ha
O   0.000000  0.003178 -0.053885
H  -0.000000 -0.050424  0.922798
2
Frame 1163   E = -75.33091129 Ha
O   0.000000  0.003023 -0.053806
H  -0.000000 -0.047976  0.921546
2
Frame 1164   E = -75.33110269 Ha
O   0.000000  0.002870 -0.053653
H  -0.000000 -0.045550  0.919109
2
Frame 1165   E = -75.33136107 Ha
O   0.000000  0.002719 -0.053429
H  -0.000000 -0.043151  0.915556
2
Frame 1166   E = -75.33165503 Ha
O   0.000000  0.002570 -0.053141
H  -0.000000 -0.040785  0.910992
2
Frame 1167   E = -75.33194711 Ha
O   0.000000  0.002424 -0.052799
H  -0.000000 -0.038458  0.905556
2
Frame 1168   E = -75.33219750 Ha
O   0.000000  0.002280 -0.052412
H  -0.000000 -0.036177  0.899416
2
Frame 1169   E = -75.33236878 Ha
O   0.000000  0.002139 -0.051993
H  -0.000000 -0.033948  0.892776
2
Frame 1170   E = -75.33243133 Ha
O   0.000000  0.002003 -0.051558
H  -0.000000 -0.031777  0.885862
2
Frame 1171   E = -75.33236886 Ha
O   0.000000  0.001870 -0.051121
H  -0.000000 -0.029670  0.878925
2
Frame 1172   E = -75.33218305 Ha
O   0.000000  0.001742 -0.050699
H  -0.000000 -0.027633  0.872231
2
Frame 1173   E = -75.33189601 Ha
O   0.000000  0.001618 -0.050309
H  -0.000000 -0.025670  0.866049
2
Frame 1174   E = -75.33154916 Ha
O   0.000000  0.001499 -0.049969
H  -0.000000 -0.023785  0.860640
2
Frame 1175   E = -75.33119792 Ha
O   0.000000  0.001385 -0.049692
H  -0.000000 -0.021979  0.856244
2
Frame 1176   E = -75.33090220 Ha
O   0.000000  0.001276 -0.049491
H  -0.000000 -0.020253  0.853062
2
Frame 1177   E = -75.33071459 Ha
O   0.000000  0.001173 -0.049377
H  -0.000000 -0.018608  0.851245
2
Frame 1178   E = -75.33066897 Ha
O   0.000000  0.001074 -0.049354
H  -0.000000 -0.017040  0.850880
2
Frame 1179   E = -75.33077266 Ha
O   0.000000  0.000980 -0.049423
H  -0.000000 -0.015549  0.851986
2
Frame 1180   E = -75.33100476 Ha
O   0.000000  0.000891 -0.049582
H  -0.000000 -0.014131  0.854510
2
Frame 1181   E = -75.33132098 Ha
O   0.000000  0.000806 -0.049823
H  -0.000000 -0.012782  0.858333
2
Frame 1182   E = -75.33166356 Ha
O   0.000000  0.000725 -0.050135
H  -0.000000 -0.011500  0.863279
2
Frame 1183   E = -75.33197335 Ha
O   0.000000  0.000648 -0.050503
H  -0.000000 -0.010283  0.869124
2
Frame 1184   E = -75.33220077 Ha
O   0.000000  0.000576 -0.050912
H  -0.000000 -0.009130  0.875618
2
Frame 1185   E = -75.33231342 Ha
O   0.000000  0.000507 -0.051345
H  -0.000000 -0.008040  0.882492
2
Frame 1186   E = -75.33229937 Ha
O   0.000000  0.000442 -0.051786
H  -0.000000 -0.007013  0.889478
2
Frame 1187   E = -75.33216637 Ha
O   0.000000  0.000382 -0.052216
H  -0.000000 -0.006053  0.896316
2
Frame 1188   E = -75.33193812 Ha
O   0.000000  0.000325 -0.052623
H  -0.000000 -0.005159  0.902765
2
Frame 1189   E = -75.33164908 Ha
O   0.000000  0.000274 -0.052991
H  -0.000000 -0.004336  0.908609
2
Frame 1190   E = -75.33133879 Ha
O   0.000000  0.000226 -0.053309
H  -0.000000 -0.003585  0.913661
2
Frame 1191   E = -75.33104671 Ha
O   0.000000  0.000184 -0.053568
H  -0.000000 -0.002910  0.917766
2
Frame 1192   E = -75.33080792 Ha
O   0.000000  0.000146 -0.053759
H  -0.000000 -0.002313  0.920804
2
Frame 1193   E = -75.33064985 Ha
O   0.000000  0.000114 -0.053878
H  -0.000000 -0.001796  0.922687
2
Frame 1194   E = -75.33059010 Ha
O   0.000000  0.000086 -0.053921
H  -0.000000 -0.001361  0.923361
2
Frame 1195   E = -75.33063512 Ha
O   0.000000  0.000064 -0.053886
H  -0.000000 -0.001008  0.922807
2
Frame 1196   E = -75.33077975 Ha
O   0.000000  0.000047 -0.053774
H  -0.000000 -0.000737  0.921042
2
Frame 1197   E = -75.33100759 Ha
O   0.000000  0.000035 -0.053590
H  -0.000000 -0.000549  0.918114
2
Frame 1198   E = -75.33129217 Ha
O   0.000000  0.000028 -0.053338
H  -0.000000 -0.000441  0.914107
2
Frame 1199   E = -75.33159906 Ha
O   0.000000  0.000026 -0.053024
H  -0.000000 -0.000413  0.909139
2
Frame 1200   E = -75.33188904 Ha
O   0.000000  0.000029 -0.052660
H  -0.000000 -0.000461  0.903361
2
Frame 1201   E = -75.33212223 Ha
O   0.000000  0.000037 -0.052257
H  -0.000000 -0.000582  0.896956
2
Frame 1202   E = -75.33226325 Ha
O   0.000000  0.000049 -0.051827
H  -0.000000 -0.000774  0.890138
2
Frame 1203   E = -75.33228684 Ha
O   0.000000  0.000065 -0.051387
H  -0.000000 -0.001032  0.883146
2
Frame 1204   E = -75.33218325 Ha
O   0.000000  0.000086 -0.050951
H  -0.000000 -0.001354  0.876238
2
Frame 1205   E = -75.33196219 Ha
O   0.000000  0.000110 -0.050538
H  -0.000000 -0.001735  0.869684
2
Frame 1206   E = -75.33165400 Ha
O   0.000000  0.000137 -0.050165
H  -0.000000 -0.002174  0.863753
2
Frame 1207   E = -75.33130687 Ha
O   0.000000  0.000168 -0.049846
H  -0.000000 -0.002668  0.858699
2
Frame 1208   E = -75.33097969 Ha
O   0.000000  0.000203 -0.049597
H  -0.000000 -0.003216  0.854750
2
Frame 1209   E = -75.33073121 Ha
O   0.000000  0.000241 -0.049430
H  -0.000000 -0.003817  0.852088
2
Frame 1210   E = -75.33060795 Ha
O   0.000000  0.000282 -0.049351
H  -0.000000 -0.004471  0.850840
2
Frame 1211   E = -75.33063378 Ha
O   0.000000  0.000327 -0.049365
H  -0.000000 -0.005178  0.851065
2
Frame 1212   E = -75.33080440 Ha
O   0.000000  0.000375 -0.049472
H  -0.000000 -0.005941  0.852755
2
Frame 1213   E = -75.33108830 Ha
O   0.000000  0.000426 -0.049665
H  -0.000000 -0.006761  0.855827
2
Frame 1214   E = -75.33143412 Ha
O   0.000000  0.000482 -0.049937
H  -0.000000 -0.007639  0.860136
2
Frame 1215   E = -75.33178180 Ha
O   0.000000  0.000541 -0.050274
H  -0.000000 -0.008578  0.865486
2
Frame 1216   E = -75.33207471 Ha
O   0.000000  0.000604 -0.050662
H  -0.000000 -0.009579  0.871640
2
Frame 1217   E = -75.33226941 Ha
O   0.000000  0.000671 -0.051084
H  -0.000000 -0.010642  0.878336
2
Frame 1218   E = -75.33234164 Ha
O   0.000000  0.000742 -0.051523
H  -0.000000 -0.011770  0.885306
2
Frame 1219   E = -75.33228770 Ha
O   0.000000  0.000817 -0.051962
H  -0.000000 -0.012962  0.892281
2
Frame 1220   E = -75.33212239 Ha
O   0.000000  0.000896 -0.052386
H  -0.000000 -0.014219  0.899009
2
Frame 1221   E = -75.33187445 Ha
O   0.000000  0.000980 -0.052780
H  -0.000000 -0.015540  0.905257
2
Frame 1222   E = -75.33158105 Ha
O   0.000000  0.001067 -0.053131
H  -0.000000 -0.016924  0.910822
2
Frame 1223   E = -75.33128223 Ha
O   0.000000  0.001158 -0.053427
H  -0.000000 -0.018370  0.915529
2
Frame 1224   E = -75.33101607 Ha
O   0.000000  0.001253 -0.053661
H  -0.000000 -0.019876  0.919236
2
Frame 1225   E = -75.33081484 Ha
O   0.000000  0.001351 -0.053825
H  -0.000000 -0.021440  0.921836
2
Frame 1226   E = -75.33070220 Ha
O   0.000000  0.001453 -0.053914
H  -0.000000 -0.023061  0.923255
2
Frame 1227   E = -75.33069142 Ha
O   0.000000  0.001559 -0.053926
H  -0.000000 -0.024735  0.923454
2
Frame 1228   E = -75.33078441 Ha
O   0.000000  0.001668 -0.053862
H  -0.000000 -0.026461  0.922426
2
Frame 1229   E = -75.33097168 Ha
O   0.000000  0.001780 -0.053721
H  -0.000000 -0.028237  0.920200
2
Frame 1230   E = -75.33123295 Ha
O   0.000000  0.001894 -0.053510
H  -0.000000 -0.030061  0.916838
2
Frame 1231   E = -75.33153874 Ha
O   0.000000  0.002012 -0.053232
H  -0.000000 -0.031931  0.912435
2
Frame 1232   E = -75.33185281 Ha
O   0.000000  0.002133 -0.052897
H  -0.000000 -0.033849  0.907121
2
Frame 1233   E = -75.33213564 Ha
O   0.000000  0.002257 -0.052515
H  -0.000000 -0.035815  0.901059
2
Frame 1234   E = -75.33234891 Ha
O   0.000000  0.002384 -0.052098
H  -0.000000 -0.037831  0.894441
2
Frame 1235   E = -75.33246078 Ha
O   0.000000  0.002515 -0.051660
H  -0.000000 -0.039904  0.887489
2
Frame 1236   E = -75.33245140 Ha
O   0.000000  0.002649 -0.051217
H  -0.000000 -0.042038  0.880446
2
Frame 1237   E = -75.33231779 Ha
O   0.000000  0.002788 -0.050784
H  -0.000000 -0.044242  0.873574
2
Frame 1238   E = -75.33207684 Ha
O   0.000000  0.002932 -0.050378
H  -0.000000 -0.046528  0.867140
2
Frame 1239   E = -75.33176516 Ha
O   0.000000  0.003082 -0.050017
H  -0.000000 -0.048907  0.861406
2
Frame 1240   E = -75.33143476 Ha
O   0.000000  0.003239 -0.049715
H  -0.000000 -0.051393  0.856615
2
Frame 1241   E = -75.33114461 Ha
O   0.000000  0.003403 -0.049486
H  -0.000000 -0.053997  0.852976
2
Frame 1242   E = -75.33094939 Ha
O   0.000000  0.003575 -0.049339
H  -0.000000 -0.056734  0.850653
2
Frame 1243   E = -75.33088787 Ha
O   0.000000  0.003756 -0.049282
H  -0.000000 -0.059612  0.849746
2
Frame 1244   E = -75.33097419 Ha
O   0.000000  0.003947 -0.049317
H  -0.000000 -0.062640  0.850291
2
Frame 1245   E = -75.33119453 Ha
O   0.000000  0.004148 -0.049440
H  -0.000000 -0.065819  0.852253
2
Frame 1246   E = -75.33151043 Ha
O   0.000000  0.004357 -0.049647
H  -0.000000 -0.069149  0.855530
2
Frame 1247   E = -75.33186743 Ha
O   0.000000  0.004576 -0.049926
H  -0.000000 -0.072622  0.859959
2
Frame 1248   E = -75.33220664 Ha
O   0.000000  0.004803 -0.050264
H  -0.000000 -0.076228  0.865331
2
Frame 1249   E = -75.33247598 Ha
O   0.000000  0.005038 -0.050647
H  -0.000000 -0.079951  0.871405
2
Frame 1250   E = -75.33263865 Ha
O   0.000000  0.005279 -0.051057
H  -0.000000 -0.083774  0.877918
2
Frame 1251   E = -75.33267736 Ha
O   0.000000  0.005525 -0.051479
H  -0.000000 -0.087675  0.884605
2
Frame 1252   E = -75.33259454 Ha
O   0.000000  0.005774 -0.051895
H  -0.000000 -0.091634  0.891207
2
Frame 1253   E = -75.33240939 Ha
O   0.000000  0.006026 -0.052290
H  -0.000000 -0.095629  0.897481
2
Frame 1254   E = -75.33215308 Ha
O   0.000000  0.006278 -0.052651
H  -0.000000 -0.099638  0.903207
2
Frame 1255   E = -75.33186325 Ha
O   0.000000  0.006531 -0.052965
H  -0.000000 -0.103641  0.908192
2
Frame 1256   E = -75.33157890 Ha
O   0.000000  0.006781 -0.053222
H  -0.000000 -0.107619  0.912276
2
Frame 1257   E = -75.33133593 Ha
O   0.000000  0.007029 -0.053415
H  -0.000000 -0.111557  0.915330
2
Frame 1258   E = -75.33116382 Ha
O   0.000000  0.007274 -0.053536
H  -0.000000 -0.115439  0.917256
2
Frame 1259   E = -75.33108316 Ha
O   0.000000  0.007515 -0.053582
H  -0.000000 -0.119255  0.917992
2
Frame 1260   E = -75.33110427 Ha
O   0.000000  0.007750 -0.053552
H  -0.000000 -0.122996  0.917507
2
Frame 1261   E = -75.33122648 Ha
O   0.000000  0.007981 -0.053444
H  -0.000000 -0.126658  0.915803
2
Frame 1262   E = -75.33143825 Ha
O   0.000000  0.008207 -0.053262
H  -0.000000 -0.130239  0.912916
2
Frame 1263   E = -75.33171802 Ha
O   0.000000  0.008427 -0.053010
H  -0.000000 -0.133742  0.908913
2
Frame 1264   E = -75.33203580 Ha
O   0.000000  0.008644 -0.052694
H  -0.000000 -0.137175  0.903893
2
Frame 1265   E = -75.33235575 Ha
O   0.000000  0.008856 -0.052322
H  -0.000000 -0.140552  0.897988
2
Frame 1266   E = -75.33263961 Ha
O   0.000000  0.009067 -0.051904
H  -0.000000 -0.143890  0.891360
2
Frame 1267   E = -75.33285107 Ha
O   0.000000  0.009276 -0.051453
H  -0.000000 -0.147214  0.884201
2
Frame 1268   E = -75.33296086 Ha
O   0.000000  0.009487 -0.050982
H  -0.000000 -0.150554  0.876729
2
Frame 1269   E = -75.33295188 Ha
O   0.000000  0.009700 -0.050507
H  -0.000000 -0.153946  0.869181
2
Frame 1270   E = -75.33282363 Ha
O   0.000000  0.009920 -0.050042
H  -0.000000 -0.157430  0.861809
2
Frame 1271   E = -75.33259467 Ha
O   0.000000  0.010148 -0.049605
H  -0.000000 -0.161052  0.854870
2
Frame 1272   E = -75.33230198 Ha
O   0.000000  0.010388 -0.049211
H  -0.000000 -0.164857  0.848612
2
Frame 1273   E = -75.33199640 Ha
O   0.000000  0.010642 -0.048874
H  -0.000000 -0.168891  0.843266
2
Frame 1274   E = -75.33173429 Ha
O   0.000000  0.010913 -0.048607
H  -0.000000 -0.173197  0.839027
2
Frame 1275   E = -75.33156677 Ha
O   0.000000  0.011204 -0.048419
H  -0.000000 -0.177810  0.836042
2
Frame 1276   E = -75.33152891 Ha
O   0.000000  0.011516 -0.048315
H  -0.000000 -0.182757  0.834403
2
Frame 1277   E = -75.33163195 Ha
O   0.000000  0.011849 -0.048299
H  -0.000000 -0.188052  0.834135
2
Frame 1278   E = -75.33186074 Ha
O   0.000000  0.012205 -0.048365
H  -0.000000 -0.193694  0.835198
2
Frame 1279   E = -75.33217724 Ha
O   0.000000  0.012581 -0.048510
H  -0.000000 -0.199668  0.837489
2
Frame 1280   E = -75.33252894 Ha
O   0.000000  0.012977 -0.048722
H  -0.000000 -0.205948  0.840850
2
Frame 1281   E = -75.33285983 Ha
O   0.000000  0.013389 -0.048988
H  -0.000000 -0.212492  0.845080
2
Frame 1282   E = -75.33312083 Ha
O   0.000000  0.013815 -0.049295
H  -0.000000 -0.219250  0.849946
2
Frame 1283   E = -75.33327750 Ha
O   0.000000  0.014251 -0.049626
H  -0.000000 -0.226165  0.855201
2
Frame 1284   E = -75.33331395 Ha
O   0.000000  0.014692 -0.049966
H  -0.000000 -0.233175  0.860592
2
Frame 1285   E = -75.33323287 Ha
O   0.000000  0.015136 -0.050299
H  -0.000000 -0.240218  0.865876
2
Frame 1286   E = -75.33305271 Ha
O   0.000000  0.015578 -0.050610
H  -0.000000 -0.247232  0.870824
2
Frame 1287   E = -75.33280322 Ha
O   0.000000  0.016015 -0.050888
H  -0.000000 -0.254160  0.875229
2
Frame 1288   E = -75.33252030 Ha
O   0.000000  0.016442 -0.051120
H  -0.000000 -0.260947  0.878911
2
Frame 1289   E = -75.33224120 Ha
O   0.000000  0.016858 -0.051297
H  -0.000000 -0.267547  0.881718
2
Frame 1290   E = -75.33200044 Ha
O   0.000000  0.017260 -0.051411
H  -0.000000 -0.273918  0.883529
2
Frame 1291   E = -75.33182666 Ha
O   0.000000  0.017645 -0.051457
H  -0.000000 -0.280025  0.884254
2
Frame 1292   E = -75.33174031 Ha
O   0.000000  0.018011 -0.051430
H  -0.000000 -0.285845  0.883832
2
Frame 1293   E = -75.33175236 Ha
O   0.000000  0.018359 -0.051329
H  -0.000000 -0.291359  0.882233
2
Frame 1294   E = -75.33186356 Ha
O   0.000000  0.018686 -0.051154
H  -0.000000 -0.296558  0.879457
2
Frame 1295   E = -75.33206450 Ha
O   0.000000  0.018994 -0.050907
H  -0.000000 -0.301444  0.875534
2
Frame 1296   E = -75.33233626 Ha
O   0.000000  0.019283 -0.050591
H  -0.000000 -0.306028  0.870521
2
Frame 1297   E = -75.33265177 Ha
O   0.000000  0.019554 -0.050212
H  -0.000000 -0.310329  0.864508
2
Frame 1298   E = -75.33297797 Ha
O   0.000000  0.019809 -0.049778
H  -0.000000 -0.314382  0.857612
2
Frame 1299   E = -75.33327878 Ha
O   0.000000  0.020052 -0.049297
H  -0.000000 -0.318228  0.849975
2
Frame 1300   E = -75.33351891 Ha
O   0.000000  0.020284 -0.048780
H  -0.000000 -0.321924  0.841769
2
Frame 1301   E = -75.33366838 Ha
O   0.000000  0.020512 -0.048239
H  -0.000000 -0.325536  0.833189
2
Frame 1302   E = -75.33370729 Ha
O   0.000000  0.020739 -0.047688
H  -0.000000 -0.329141  0.824446
2
Frame 1303   E = -75.33363019 Ha
O   0.000000  0.020971 -0.047141
H  -0.000000 -0.332825  0.815769
2
Frame 1304   E = -75.33344889 Ha
O   0.000000  0.021214 -0.046613
H  -0.000000 -0.336681  0.807388
2
Frame 1305   E = -75.33319290 Ha
O   0.000000  0.021474 -0.046118
H  -0.000000 -0.340804  0.799534
2
Frame 1306   E = -75.33290634 Ha
O   0.000000  0.021757 -0.045670
H  -0.000000 -0.345286  0.792417
2
Frame 1307   E = -75.33264133 Ha
O   0.000000  0.022067 -0.045280
H  -0.000000 -0.350215  0.786225
2
Frame 1308   E = -75.33244861 Ha
O   0.000000  0.022410 -0.044957
H  -0.000000 -0.355662  0.781104
2
Frame 1309   E = -75.33236735 Ha
O   0.000000  0.022790 -0.044708
H  -0.000000 -0.361682  0.777150
2
Frame 1310   E = -75.33241675 Ha
O   0.000000  0.023207 -0.044535
H  -0.000000 -0.368304  0.774407
2
Frame 1311   E = -75.33259173 Ha
O   0.000000  0.023662 -0.044437
H  -0.000000 -0.375533  0.772857
2
Frame 1312   E = -75.33286414 Ha
O   0.000000  0.024155 -0.044410
H  -0.000000 -0.383345  0.772426
2
Frame 1313   E = -75.33318897 Ha
O   0.000000  0.024680 -0.044446
H  -0.000000 -0.391690  0.772991
2
Frame 1314   E = -75.33351379 Ha
O   0.000000  0.025235 -0.044534
H  -0.000000 -0.400495  0.774383
2
Frame 1315   E = -75.33378888 Ha
O   0.000000  0.025813 -0.044661
H  -0.000000 -0.409667  0.776408
2
Frame 1316   E = -75.33397549 Ha
O   0.000000  0.026408 -0.044815
H  -0.000000 -0.419101  0.778850
2
Frame 1317   E = -75.33405101 Ha
O   0.000000  0.027011 -0.044981
H  -0.000000 -0.428683  0.781487
2
Frame 1318   E = -75.33401047 Ha
O   0.000000  0.027617 -0.045146
H  -0.000000 -0.438296  0.784103
2
Frame 1319   E = -75.33386503 Ha
O   0.000000  0.028217 -0.045297
H  -0.000000 -0.447825  0.786491
2
Frame 1320   E = -75.33363838 Ha
O   0.000000  0.028806 -0.045421
H  -0.000000 -0.457162  0.788463
2
Frame 1321   E = -75.33336229 Ha
O   0.000000  0.029376 -0.045508
H  -0.000000 -0.466207  0.789853
2
Frame 1322   E = -75.33307193 Ha
O   0.000000  0.029921 -0.045550
H  -0.000000 -0.474870  0.790519
2
Frame 1323   E = -75.33280179 Ha
O   0.000000  0.030438 -0.045539
H  -0.000000 -0.483073  0.790345
2
Frame 1324   E = -75.33258236 Ha
O   0.000000  0.030922 -0.045470
H  -0.000000 -0.490754  0.789242
2
Frame 1325   E = -75.33243758 Ha
O   0.000000  0.031370 -0.045338
H  -0.000000 -0.497863  0.787147
2
Frame 1326   E = -75.33238323 Ha
O   0.000000  0.031780 -0.045141
H  -0.000000 -0.504363  0.784022
2
Frame 1327   E = -75.33242591 Ha
O   0.000000  0.032150 -0.044879
H  -0.000000 -0.510237  0.779857
2
Frame 1328   E = -75.33256266 Ha
O   0.000000  0.032480 -0.044551
H  -0.000000 -0.515479  0.774663
2
Frame 1329   E = -75.33278122 Ha
O   0.000000  0.032771 -0.044162
H  -0.000000 -0.520101  0.768479
2
Frame 1330   E = -75.33306081 Ha
O   0.000000  0.033025 -0.043713
H  -0.000000 -0.524131  0.761367
2
Frame 1331   E = -75.33337358 Ha
O   0.000000  0.033245 -0.043212
H  -0.000000 -0.527617  0.753412
2
Frame 1332   E = -75.33368676 Ha
O   0.000000  0.033434 -0.042665
H  -0.000000 -0.530622  0.744722
2
Frame 1333   E = -75.33396567 Ha
O   0.000000  0.033599 -0.042079
H  -0.000000 -0.533228  0.735429
2
Frame 1334   E = -75.33417741 Ha
O   0.000000  0.033744 -0.041465
H  -0.000000 -0.535535  0.725683
2
Frame 1335   E = -75.33429520 Ha
O   0.000000  0.033878 -0.040833
H  -0.000000 -0.537658  0.715653
2
Frame 1336   E = -75.33430279 Ha
O   0.000000  0.034008 -0.040195
H  -0.000000 -0.539730  0.705522
2
Frame 1337   E = -75.33419832 Ha
O   0.000000  0.034145 -0.039562
H  -0.000000 -0.541893  0.695479
2
Frame 1338   E = -75.33399664 Ha
O   0.000000  0.034296 -0.038947
H  -0.000000 -0.544297  0.685718
2
Frame 1339   E = -75.33372900 Ha
O   0.000000  0.034472 -0.038361
H  -0.000000 -0.547091  0.676423
2
Frame 1340   E = -75.33343958 Ha
O   0.000000  0.034682 -0.037816
H  -0.000000 -0.550419  0.667766
2
Frame 1341   E = -75.33317864 Ha
O   0.000000  0.034933 -0.037319
H  -0.000000 -0.554408  0.659889
2
Frame 1342   E = -75.33299344 Ha
O   0.000000  0.035233 -0.036879
H  -0.000000 -0.559163  0.652903
2
Frame 1343   E = -75.33291872 Ha
O   0.000000  0.035585 -0.036500
H  -0.000000 -0.564755  0.646877
2
Frame 1344   E = -75.33296926 Ha
O   0.000000  0.035992 -0.036182
H  -0.000000 -0.571219  0.641834
2
Frame 1345   E = -75.33313665 Ha
O   0.000000  0.036454 -0.035924
H  -0.000000 -0.578549  0.637748
2
Frame 1346   E = -75.33339113 Ha
O   0.000000  0.036968 -0.035723
H  -0.000000 -0.586697  0.634551
2
Frame 1347   E = -75.33368805 Ha
O   0.000000  0.037527 -0.035571
H  -0.000000 -0.595577  0.632135
2
Frame 1348   E = -75.33397702 Ha
O   0.000000  0.038125 -0.035459
H  -0.000000 -0.605071  0.630361
2
Frame 1349   E = -75.33421138 Ha
O   0.000000  0.038753 -0.035378
H  -0.000000 -0.615035  0.629070
2
Frame 1350   E = -75.33435574 Ha
O   0.000000  0.039400 -0.035316
H  -0.000000 -0.625306  0.628091
2
Frame 1351   E = -75.33439046 Ha
O   0.000000  0.040056 -0.035263
H  -0.000000 -0.635716  0.627250
2
Frame 1352   E = -75.33431277 Ha
O   0.000000  0.040710 -0.035208
H  -0.000000 -0.646092  0.626379
2
Frame 1353   E = -75.33413505 Ha
O   0.000000  0.041351 -0.035141
H  -0.000000 -0.656269  0.625319
2
Frame 1354   E = -75.33388138 Ha
O   0.000000  0.041970 -0.035054
H  -0.000000 -0.666092  0.623930
2
Frame 1355   E = -75.33358316 Ha
O   0.000000  0.042558 -0.034938
H  -0.000000 -0.675418  0.622087
2
Frame 1356   E = -75.33327479 Ha
O   0.000000  0.043106 -0.034786
H  -0.000000 -0.684123  0.619686
2
Frame 1357   E = -75.33298971 Ha
O   0.000000  0.043609 -0.034595
H  -0.000000 -0.692103  0.616645
2
Frame 1358   E = -75.33275731 Ha
O   0.000000  0.044061 -0.034359
H  -0.000000 -0.699272  0.612901
2
Frame 1359   E = -75.33260055 Ha
O   0.000000  0.044457 -0.034076
H  -0.000000 -0.705566  0.608412
2
Frame 1360   E = -75.33253431 Ha
O   0.000000  0.044796 -0.033745
H  -0.000000 -0.710942  0.603156
2
Frame 1361   E = -75.33256450 Ha
O   0.000000  0.045076 -0.033365
H  -0.000000 -0.715378  0.597129
2
Frame 1362   E = -75.33268765 Ha
O   0.000000  0.045296 -0.032938
H  -0.000000 -0.718877  0.590347
2
Frame 1363   E = -75.33289111 Ha
O   0.000000  0.045459 -0.032465
H  -0.000000 -0.721461  0.582844
2
Frame 1364   E = -75.33315379 Ha
O   0.000000  0.045567 -0.031950
H  -0.000000 -0.723179  0.574671
2
Frame 1365   E = -75.33344764 Ha
O   0.000000  0.045625 -0.031397
H  -0.000000 -0.724101  0.565896
2
Frame 1366   E = -75.33373974 Ha
O   0.000000  0.045639 -0.030812
H  -0.000000 -0.724322  0.556606
2
Frame 1367   E = -75.33399531 Ha
O   0.000000  0.045617 -0.030200
H  -0.000000 -0.723962  0.546899
2
Frame 1368   E = -75.33418145 Ha
O   0.000000  0.045566 -0.029569
H  -0.000000 -0.723162  0.536892
2
Frame 1369   E = -75.33427151 Ha
O   0.000000  0.045498 -0.028928
H  -0.000000 -0.722087  0.526709
2
Frame 1370   E = -75.33424956 Ha
O   0.000000  0.045425 -0.028284
H  -0.000000 -0.720918  0.516488
2
Frame 1371   E = -75.33411436 Ha
O   0.000000  0.045358 -0.027646
H  -0.000000 -0.719852  0.506367
2
Frame 1372   E = -75.33388156 Ha
O   0.000000  0.045310 -0.027024
H  -0.000000 -0.719090  0.496486
2
Frame 1373   E = -75.33358352 Ha
O   0.000000  0.045293 -0.026425
H  -0.000000 -0.718833  0.486979
2
Frame 1374   E = -75.33326554 Ha
O   0.000000  0.045321 -0.025857
H  -0.000000 -0.719271  0.477964
2
Frame 1375   E = -75.33297890 Ha
O   0.000000  0.045403 -0.025326
H  -0.000000 -0.720569  0.469544
2
Frame 1376   E = -75.33277146 Ha
O   0.000000  0.045547 -0.024837
H  -0.000000 -0.722859  0.461791
2
Frame 1377   E = -75.33267801 Ha
O   0.000000  0.045759 -0.024394
H  -0.000000 -0.726230  0.454750
2
Frame 1378   E = -75.33271272 Ha
O   0.000000  0.046042 -0.023996
H  -0.000000 -0.730720  0.448431
2
Frame 1379   E = -75.33286597 Ha
O   0.000000  0.046395 -0.023642
H  -0.000000 -0.736313  0.442812
2
Frame 1380   E = -75.33310651 Ha
O   0.000000  0.046812 -0.023328
H  -0.000000 -0.742941  0.437838
2
Frame 1381   E = -75.33338824 Ha
O   0.000000  0.047288 -0.023051
H  -0.000000 -0.750485  0.433432
2
Frame 1382   E = -75.33365967 Ha
O   0.000000  0.047811 -0.022802
H  -0.000000 -0.758788  0.429494
2
Frame 1383   E = -75.33387362 Ha
O   0.000000  0.048370 -0.022577
H  -0.000000 -0.767660  0.425912
2
Frame 1384   E = -75.33399485 Ha
O   0.000000  0.048952 -0.022366
H  -0.000000 -0.776895  0.422569
2
Frame 1385   E = -75.33400451 Ha
O   0.000000  0.049543 -0.022163
H  -0.000000 -0.786275  0.419346
2
Frame 1386   E = -75.33390104 Ha
O   0.000000  0.050129 -0.021961
H  -0.000000 -0.795584  0.416131
2
Frame 1387   E = -75.33369834 Ha
O   0.000000  0.050698 -0.021752
H  -0.000000 -0.804616  0.412822
2
Frame 1388   E = -75.33342199 Ha
O   0.000000  0.051238 -0.021532
H  -0.000000 -0.813179  0.409327
2
Frame 1389   E = -75.33310479 Ha
O   0.000000  0.051737 -0.021295
H  -0.000000 -0.821103  0.405568
2
Frame 1390   E = -75.33278216 Ha
O   0.000000  0.052187 -0.021037
H  -0.000000 -0.828238  0.401482
2
Frame 1391   E = -75.33248822 Ha
O   0.000000  0.052579 -0.020756
H  -0.000000 -0.834461  0.397019
2
Frame 1392   E = -75.33225244 Ha
O   0.000000  0.052908 -0.020449
H  -0.000000 -0.839676  0.392144
2
Frame 1393   E = -75.33209733 Ha
O   0.000000  0.053168 -0.020115
H  -0.000000 -0.843812  0.386836
2
Frame 1394   E = -75.33203672 Ha
O   0.000000  0.053358 -0.019752
H  -0.000000 -0.846827  0.381084
2
Frame 1395   E = -75.33207483 Ha
O   0.000000  0.053476 -0.019362
H  -0.000000 -0.848704  0.374894
2
Frame 1396   E = -75.33220600 Ha
O   0.000000  0.053524 -0.018945
H  -0.000000 -0.849458  0.368280
2
Frame 1397   E = -75.33241490 Ha
O   0.000000  0.053503 -0.018504
H  -0.000000 -0.849128  0.361270
2
Frame 1398   E = -75.33267754 Ha
O   0.000000  0.053418 -0.018039
H  -0.000000 -0.847784  0.353900
2
Frame 1399   E = -75.33296299 Ha
O   0.000000  0.053276 -0.017555
H  -0.000000 -0.845526  0.346219
2
Frame 1400   E = -75.33323586 Ha
O   0.000000  0.053084 -0.017055
H  -0.000000 -0.842481  0.338284
2
Frame 1401   E = -75.33345982 Ha
O   0.000000  0.052853 -0.016544
H  -0.000000 -0.838804  0.330162
2
Frame 1402   E = -75.33360184 Ha
O   0.000000  0.052593 -0.016025
H  -0.000000 -0.834679  0.321926
2
Frame 1403   E = -75.33363705 Ha
O   0.000000  0.052317 -0.015504
H  -0.000000 -0.830311  0.313656
2
Frame 1404   E = -75.33355351 Ha
O   0.000000  0.052041 -0.014986
H  -0.000000 -0.825927  0.305436
2
Frame 1405   E = -75.33335601 Ha
O   0.000000  0.051779 -0.014476
H  -0.000000 -0.821763  0.297350
2
Frame 1406   E = -75.33306774 Ha
O   0.000000  0.051546 -0.013980
H  -0.000000 -0.818062  0.289480
2
Frame 1407   E = -75.33272876 Ha
O   0.000000  0.051356 -0.013503
H  -0.000000 -0.815056  0.281901
2
Frame 1408   E = -75.33239070 Ha
O   0.000000  0.051224 -0.013048
H  -0.000000 -0.812958  0.274678
2
Frame 1409   E = -75.33210802 Ha
O   0.000000  0.051160 -0.012618
H  -0.000000 -0.811947  0.267862
2
Frame 1410   E = -75.33192740 Ha
O   0.000000  0.051174 -0.012216
H  -0.000000 -0.812156  0.261486
2
Frame 1411   E = -75.33187785 Ha
O   0.000000  0.051268 -0.011843
H  -0.000000 -0.813662  0.255564
2
Frame 1412   E = -75.33196417 Ha
O   0.000000  0.051446 -0.011498
H  -0.000000 -0.816480  0.250091
2
Frame 1413   E = -75.33216584 Ha
O   0.000000  0.051703 -0.011180
H  -0.000000 -0.820562  0.245044
2
Frame 1414   E = -75.33244165 Ha
O   0.000000  0.052033 -0.010887
H  -0.000000 -0.825798  0.240381
2
Frame 1415   E = -75.33273861 Ha
O   0.000000  0.052426 -0.010614
H  -0.000000 -0.832029  0.236050
2
Frame 1416   E = -75.33300272 Ha
O   0.000000  0.052868 -0.010358
H  -0.000000 -0.839052  0.231991
2
Frame 1417   E = -75.33318872 Ha
O   0.000000  0.053346 -0.010115
H  -0.000000 -0.846638  0.228139
2
Frame 1418   E = -75.33326687 Ha
O   0.000000  0.053844 -0.009881
H  -0.000000 -0.854541  0.224427
2
Frame 1419   E = -75.33322595 Ha
O   0.000000  0.054347 -0.009652
H  -0.000000 -0.862515  0.220793
2
Frame 1420   E = -75.33307270 Ha
O   0.000000  0.054838 -0.009425
H  -0.000000 -0.870318  0.217181
2
Frame 1421   E = -75.33282859 Ha
O   0.000000  0.055305 -0.009195
H  -0.000000 -0.877726  0.213539
2
Frame 1422   E = -75.33252524 Ha
O   0.000000  0.055734 -0.008961
H  -0.000000 -0.884535  0.209826
2
Frame 1423   E = -75.33219935 Ha
O   0.000000  0.056114 -0.008721
H  -0.000000 -0.890568  0.206005
2
Frame 1424   E = -75.33188804 Ha
O   0.000000  0.056436 -0.008472
H  -0.000000 -0.895678  0.202052
2
Frame 1425   E = -75.33162485 Ha
O   0.000000  0.056692 -0.008213
H  -0.000000 -0.899744  0.197948
2
Frame 1426   E = -75.33143675 Ha
O   0.000000  0.056877 -0.007944
H  -0.000000 -0.902680  0.193680
2
Frame 1427   E = -75.33134194 Ha
O   0.000000  0.056988 -0.007665
H  -0.000000 -0.904428  0.189246
2
Frame 1428   E = -75.33134855 Ha
O   0.000000  0.057021 -0.007375
H  -0.000000 -0.904965  0.184645
2
Frame 1429   E = -75.33145402 Ha
O   0.000000  0.056979 -0.007075
H  -0.000000 -0.904297  0.179887
2
Frame 1430   E = -75.33164523 Ha
O   0.000000  0.056864 -0.006766
H  -0.000000 -0.902462  0.174985
2
Frame 1431   E = -75.33189932 Ha
O   0.000000  0.056679 -0.006449
H  -0.000000 -0.899530  0.169955
2
Frame 1432   E = -75.33218535 Ha
O   0.000000  0.056432 -0.006126
H  -0.000000 -0.895605  0.164822
2
Frame 1433   E = -75.33246687 Ha
O   0.000000  0.056130 -0.005797
H  -0.000000 -0.890822  0.159611
2
Frame 1434   E = -75.33270542 Ha
O   0.000000  0.055785 -0.005466
H  -0.000000 -0.885345  0.154354
2
Frame 1435   E = -75.33286511 Ha
O   0.000000  0.055409 -0.005134
H  -0.000000 -0.879371  0.149083
2
Frame 1436   E = -75.33291771 Ha
O   0.000000  0.055015 -0.004803
H  -0.000000 -0.873122  0.143835
2
Frame 1437   E = -75.33284795 Ha
O   0.000000  0.054619 -0.004476
H  -0.000000 -0.866840  0.138647
2
Frame 1438   E = -75.33265789 Ha
O   0.000000  0.054238 -0.004156
H  -0.000000 -0.860783  0.133554
2
Frame 1439   E = -75.33236921 Ha
O   0.000000  0.053887 -0.003843
H  -0.000000 -0.855213  0.128592
2
Frame 1440   E = -75.33202209 Ha
O   0.000000  0.053582 -0.003540
H  -0.000000 -0.850383  0.123792
2
Frame 1441   E = -75.33167009 Ha
O   0.000000  0.053339 -0.003250
H  -0.000000 -0.846526  0.119181
2
Frame 1442   E = -75.33137114 Ha
O   0.000000  0.053170 -0.002973
H  -0.000000 -0.843839  0.114779
2
Frame 1443   E = -75.33117619 Ha
O   0.000000  0.053084 -0.002709
H  -0.000000 -0.842469  0.110597
2
Frame 1444   E = -75.33111829 Ha
O   0.000000  0.053086 -0.002460
H  -0.000000 -0.842505  0.106640
2
Frame 1445   E = -75.33120506 Ha
O   0.000000  0.053178 -0.002224
H  -0.000000 -0.843965  0.102903
2
Frame 1446   E = -75.33141692 Ha
O   0.000000  0.053357 -0.002002
H  -0.000000 -0.846801  0.099375
2
Frame 1447   E = -75.33171158 Ha
O   0.000000  0.053615 -0.001792
H  -0.000000 -0.850900  0.096038
2
Frame 1448   E = -75.33203340 Ha
O   0.000000  0.053942 -0.001592
H  -0.000000 -0.856091  0.092869
2
Frame 1449   E = -75.33232496 Ha
O   0.000000  0.054324 -0.001401
H  -0.000000 -0.862160  0.089845
2
Frame 1450   E = -75.33253765 Ha
O   0.000000  0.054747 -0.001218
H  -0.000000 -0.868862  0.086939
2
Frame 1451   E = -75.33263922 Ha
O   0.000000  0.055192 -0.001041
H  -0.000000 -0.875935  0.084129
2
Frame 1452   E = -75.33261710 Ha
O   0.000000  0.055645 -0.000869
H  -0.000000 -0.883117  0.081392
2
Frame 1453   E = -75.33247784 Ha
O   0.000000  0.056088 -0.000700
H  -0.000000 -0.890153  0.078710
2
Frame 1454   E = -75.33224377 Ha
O   0.000000  0.056507 -0.000533
H  -0.000000 -0.896804  0.076065
2
Frame 1455   E = -75.33194798 Ha
O   0.000000  0.056889 -0.000368
H  -0.000000 -0.902858  0.073446
2
Frame 1456   E = -75.33162890 Ha
O   0.000000  0.057221 -0.000204
H  -0.000000 -0.908128  0.070844
2
Frame 1457   E = -75.33132528 Ha
O   0.000000  0.057494 -0.000041
H  -0.000000 -0.912459  0.068253
2
Frame 1458   E = -75.33107195 Ha
O   0.000000  0.057700  0.000122
H  -0.000000 -0.915730  0.065669
2
Frame 1459   E = -75.33089659 Ha
O   0.000000  0.057833  0.000284
H  -0.000000 -0.917850  0.063091
2
Frame 1460   E = -75.33081747 Ha
O   0.000000  0.057891  0.000446
H  -0.000000 -0.918766  0.060520
2
Frame 1461   E = -75.33084210 Ha
O   0.000000  0.057871  0.000608
H  -0.000000 -0.918453  0.057958
2
Frame 1462   E = -75.33096666 Ha
O   0.000000  0.057775  0.000768
H  -0.000000 -0.916924  0.055409
2
Frame 1463   E = -75.33117627 Ha
O   0.000000  0.057605  0.000928
H  -0.000000 -0.914223  0.052879
2
Frame 1464   E = -75.33144595 Ha
O   0.000000  0.057366  0.001086
H  -0.000000 -0.910429  0.050373
2
Frame 1465   E = -75.33174260 Ha
O   0.000000  0.057065  0.001242
H  -0.000000 -0.905654  0.047897
2
Frame 1466   E = -75.33202785 Ha
O   0.000000  0.056711  0.001395
H  -0.000000 -0.900044  0.045458
2
Frame 1467   E = -75.33226206 Ha
O   0.000000  0.056316  0.001546
H  -0.000000 -0.893776  0.043064
2
Frame 1468   E = -75.33240919 Ha
O   0.000000  0.055893  0.001694
H  -0.000000 -0.887060  0.040721
2
Frame 1469   E = -75.33244234 Ha
O   0.000000  0.055456  0.001838
H  -0.000000 -0.880128  0.038438
2
Frame 1470   E = -75.33234918 Ha
O   0.000000  0.055022  0.001977
H  -0.000000 -0.873235  0.036220
2
Frame 1471   E = -75.33213616 Ha
O   0.000000  0.054607  0.002113
H  -0.000000 -0.866648  0.034074
2
Frame 1472   E = -75.33183021 Ha
O   0.000000  0.054228  0.002243
H  -0.000000 -0.860637  0.032005
2
Frame 1473   E = -75.33147673 Ha
O   0.000000  0.053902  0.002368
H  -0.000000 -0.855458  0.030017
2
Frame 1474   E = -75.33113311 Ha
O   0.000000  0.053643  0.002488
H  -0.000000 -0.851342  0.028112
2
Frame 1475   E = -75.33085859 Ha
O   0.000000  0.053462  0.002603
H  -0.000000 -0.848480  0.026292
2
Frame 1476   E = -75.33070223 Ha
O   0.000000  0.053370  0.002712
H  -0.000000 -0.847009  0.024555
2
Frame 1477   E = -75.33069204 Ha
O   0.000000  0.053369  0.002817
H  -0.000000 -0.847000  0.022900
2
Frame 1478   E = -75.33082856 Ha
O   0.000000  0.053461  0.002916
H  -0.000000 -0.848455  0.021324
2
Frame 1479   E = -75.33108468 Ha
O   0.000000  0.053640  0.003011
H  -0.000000 -0.851305  0.019823
2
Frame 1480   E = -75.33141191 Ha
O   0.000000  0.053899  0.003101
H  -0.000000 -0.855415  0.018395
2
Frame 1481   E = -75.33175112 Ha
O   0.000000  0.054226  0.003186
H  -0.000000 -0.860598  0.017035
2
Frame 1482   E = -75.33204457 Ha
O   0.000000  0.054605  0.003268
H  -0.000000 -0.866622  0.015741
2
Frame 1483   E = -75.33224627 Ha
O   0.000000  0.055022  0.003345
H  -0.000000 -0.873232  0.014512
2
Frame 1484   E = -75.33232856 Ha
O   0.000000  0.055458  0.003419
H  -0.000000 -0.880157  0.013348
2
Frame 1485   E = -75.33228439 Ha
O   0.000000  0.055898  0.003488
H  -0.000000 -0.887131  0.012247
2
Frame 1486   E = -75.33212568 Ha
O   0.000000  0.056324  0.003553
H  -0.000000 -0.893898  0.011212
2
Frame 1487   E = -75.33187918 Ha
O   0.000000  0.056722  0.003614
H  -0.000000 -0.900222  0.010244
2
Frame 1488   E = -75.33158104 Ha
O   0.000000  0.057080  0.003671
H  -0.000000 -0.905893  0.009346
2
Frame 1489   E = -75.33127119 Ha
O   0.000000  0.057385  0.003723
H  -0.000000 -0.910733  0.008520
2
Frame 1490   E = -75.33098839 Ha
O   0.000000  0.057628  0.003770
H  -0.000000 -0.914595  0.007770
2
Frame 1491   E = -75.33076615 Ha
O   0.000000  0.057803  0.003812
H  -0.000000 -0.917365  0.007096
2
Frame 1492   E = -75.33062974 Ha
O   0.000000  0.057903  0.003850
H  -0.000000 -0.918964  0.006502
2
Frame 1493   E = -75.33059420 Ha
O   0.000000  0.057928  0.003882
H  -0.000000 -0.919347  0.005989
2
Frame 1494   E = -75.33066324 Ha
O   0.000000  0.057874  0.003909
H  -0.000000 -0.918503  0.005558
2
Frame 1495   E = -75.33082900 Ha
O   0.000000  0.057745  0.003931
H  -0.000000 -0.916456  0.005208
2
Frame 1496   E = -75.33107254 Ha
O   0.000000  0.057544  0.003948
H  -0.000000 -0.913263  0.004939
2
Frame 1497   E = -75.33136532 Ha
O   0.000000  0.057277  0.003960
H  -0.000000 -0.909015  0.004751
2
Frame 1498   E = -75.33167144 Ha
O   0.000000  0.056950  0.003967
H  -0.000000 -0.903839  0.004640
2
Frame 1499   E = -75.33195111 Ha
O   0.000000  0.056576  0.003969
H  -0.000000 -0.897893  0.004605
