2
Frame 0   E = -75.33058453 Ha
O  -0.000000  0.000003 -0.053919
H   0.000000 -0.000042  0.923336
2
Frame 1   E = -75.33074024 Ha
O  -0.000000  0.000011 -0.053803
H   0.000000 -0.000169  0.921487
2
Frame 2   E = -75.33098036 Ha
O  -0.000000  0.000024 -0.053612
H   0.000000 -0.000378  0.918461
2
Frame 3   E = -75.33127726 Ha
O  -0.000000  0.000042 -0.053353
H   0.000000 -0.000669  0.914347
2
Frame 4   E = -75.33159526 Ha
O  -0.000000  0.000065 -0.053033
H   0.000000 -0.001039  0.909265
2
Frame 5   E = -75.33189391 Ha
O  -0.000000  0.000094 -0.052661
H   0.000000 -0.001484  0.903368
2
Frame 6   E = -75.33213228 Ha
O  -0.000000  0.000126 -0.052250
H   0.000000 -0.002003  0.896846
2
Frame 7   E = -75.33227430 Ha
O  -0.000000  0.000163 -0.051813
H   0.000000 -0.002590  0.889915
2
Frame 8   E = -75.33229453 Ha
O  -0.000000  0.000204 -0.051366
H   0.000000 -0.003244  0.882818
2
Frame 9   E = -75.33218368 Ha
O  -0.000000  0.000250 -0.050925
H   0.000000 -0.003962  0.875820
2
Frame 10   E = -75.33195270 Ha
O  -0.000000  0.000299 -0.050508
H   0.000000 -0.004740  0.869193
2
Frame 11   E = -75.33163378 Ha
O  -0.000000  0.000351 -0.050131
H   0.000000 -0.005578  0.863210
2
Frame 12   E = -75.33127739 Ha
O  -0.000000  0.000408 -0.049811
H   0.000000 -0.006474  0.858130
2
Frame 13   E = -75.33094461 Ha
O  -0.000000  0.000468 -0.049562
H   0.000000 -0.007429  0.854181
2
Frame 14   E = -75.33069584 Ha
O  -0.000000  0.000532 -0.049396
H   0.000000 -0.008443  0.851548
2
Frame 15   E = -75.33057822 Ha
O  -0.000000  0.000600 -0.049321
H   0.000000 -0.009519  0.850355
2
Frame 16   E = -75.33061500 Ha
O  -0.000000  0.000671 -0.049340
H   0.000000 -0.010656  0.850660
2
Frame 17   E = -75.33080014 Ha
O  -0.000000  0.000747 -0.049453
H   0.000000 -0.011859  0.852448
2
Frame 18   E = -75.33109972 Ha
O  -0.000000  0.000827 -0.049653
H   0.000000 -0.013128  0.855634
2
Frame 19   E = -75.33145976 Ha
O  -0.000000  0.000911 -0.049933
H   0.000000 -0.014465  0.860066
2
Frame 20   E = -75.33181814 Ha
O  -0.000000  0.001000 -0.050278
H   0.000000 -0.015871  0.865542
2
Frame 21   E = -75.33211693 Ha
O  -0.000000  0.001093 -0.050673
H   0.000000 -0.017345  0.871817
2
Frame 22   E = -75.33231242 Ha
O  -0.000000  0.001190 -0.051102
H   0.000000 -0.018888  0.878628
2
Frame 23   E = -75.33238085 Ha
O  -0.000000  0.001292 -0.051548
H   0.000000 -0.020497  0.885698
2
Frame 24   E = -75.33231973 Ha
O  -0.000000  0.001397 -0.051993
H   0.000000 -0.022171  0.892759
2
Frame 25   E = -75.33214530 Ha
O  -0.000000  0.001506 -0.052421
H   0.000000 -0.023906  0.899554
2
Frame 26   E = -75.33188780 Ha
O  -0.000000  0.001619 -0.052817
H   0.000000 -0.025701  0.905850
2
Frame 27   E = -75.33158572 Ha
O  -0.000000  0.001736 -0.053170
H   0.000000 -0.027550  0.911441
2
Frame 28   E = -75.33128015 Ha
O  -0.000000  0.001856 -0.053467
H   0.000000 -0.029452  0.916153
2
Frame 29   E = -75.33100991 Ha
O  -0.000000  0.001979 -0.053699
H   0.000000 -0.031401  0.919844
2
Frame 30   E = -75.33080765 Ha
O  -0.000000  0.002104 -0.053861
H   0.000000 -0.033395  0.922409
2
Frame 31   E = -75.33069713 Ha
O  -0.000000  0.002232 -0.053947
H   0.000000 -0.035429  0.923773
2
Frame 32   E = -75.33069143 Ha
O  -0.000000  0.002363 -0.053955
H   0.000000 -0.037500  0.923899
2
Frame 33   E = -75.33079209 Ha
O  -0.000000  0.002496 -0.053884
H   0.000000 -0.039606  0.922781
2
Frame 34   E = -75.33098900 Ha
O  -0.000000  0.002630 -0.053737
H   0.000000 -0.041744  0.920450
2
Frame 35   E = -75.33126113 Ha
O  -0.000000  0.002767 -0.053518
H   0.000000 -0.043913  0.916968
2
Frame 36   E = -75.33157815 Ha
O  -0.000000  0.002906 -0.053232
H   0.000000 -0.046113  0.912434
2
Frame 37   E = -75.33190286 Ha
O  -0.000000  0.003046 -0.052889
H   0.000000 -0.048346  0.906979
2
Frame 38   E = -75.33219479 Ha
O  -0.000000  0.003189 -0.052497
H   0.000000 -0.050615  0.900767
2
Frame 39   E = -75.33241476 Ha
O  -0.000000  0.003335 -0.052070
H   0.000000 -0.052925  0.893994
2
Frame 40   E = -75.33253026 Ha
O  -0.000000  0.003483 -0.051622
H   0.000000 -0.055285  0.886883
2
Frame 41   E = -75.33252111 Ha
O  -0.000000  0.003636 -0.051169
H   0.000000 -0.057705  0.879683
2
Frame 42   E = -75.33238445 Ha
O  -0.000000  0.003793 -0.050726
H   0.000000 -0.060199  0.872656
2
Frame 43   E = -75.33213785 Ha
O  -0.000000  0.003956 -0.050311
H   0.000000 -0.062783  0.866073
2
Frame 44   E = -75.33181909 Ha
O  -0.000000  0.004125 -0.049941
H   0.000000 -0.065474  0.860200
2
Frame 45   E = -75.33148175 Ha
O  -0.000000  0.004303 -0.049631
H   0.000000 -0.068290  0.855281
2
Frame 46   E = -75.33118649 Ha
O  -0.000000  0.004489 -0.049395
H   0.000000 -0.071250  0.851530
2
Frame 47   E = -75.33098939 Ha
O  -0.000000  0.004686 -0.049242
H   0.000000 -0.074369  0.849108
2
Frame 48   E = -75.33093003 Ha
O  -0.000000  0.004893 -0.049180
H   0.000000 -0.077661  0.848118
2
Frame 49   E = -75.33102252 Ha
O  -0.000000  0.005112 -0.049210
H   0.000000 -0.081135  0.848596
2
Frame 50   E = -75.33125223 Ha
O  -0.000000  0.005343 -0.049330
H   0.000000 -0.084793  0.850503
2
Frame 51   E = -75.33157923 Ha
O  -0.000000  0.005585 -0.049534
H   0.000000 -0.088631  0.853735
2
Frame 52   E = -75.33194733 Ha
O  -0.000000  0.005837 -0.049810
H   0.000000 -0.092641  0.858126
2
Frame 53   E = -75.33229603 Ha
O  -0.000000  0.006100 -0.050147
H   0.000000 -0.096805  0.863465
2
Frame 54   E = -75.33257211 Ha
O  -0.000000  0.006370 -0.050527
H   0.000000 -0.101103  0.869506
2
Frame 55   E = -75.33273811 Ha
O  -0.000000  0.006648 -0.050936
H   0.000000 -0.105512  0.875984
2
Frame 56   E = -75.33277669 Ha
O  -0.000000  0.006931 -0.051354
H   0.000000 -0.110003  0.882631
2
Frame 57   E = -75.33269069 Ha
O  -0.000000  0.007218 -0.051767
H   0.000000 -0.114548  0.889186
2
Frame 58   E = -75.33250003 Ha
O  -0.000000  0.007506 -0.052159
H   0.000000 -0.119119  0.895403
2
Frame 59   E = -75.33223671 Ha
O  -0.000000  0.007793 -0.052516
H   0.000000 -0.123688  0.901062
2
Frame 60   E = -75.33193927 Ha
O  -0.000000  0.008080 -0.052825
H   0.000000 -0.128230  0.905970
2
Frame 61   E = -75.33164751 Ha
O  -0.000000  0.008363 -0.053077
H   0.000000 -0.132721  0.909965
2
Frame 62   E = -75.33139805 Ha
O  -0.000000  0.008641 -0.053263
H   0.000000 -0.137140  0.912917
2
Frame 63   E = -75.33122095 Ha
O  -0.000000  0.008914 -0.053377
H   0.000000 -0.141469  0.914730
2
Frame 64   E = -75.33113729 Ha
O  -0.000000  0.009180 -0.053415
H   0.000000 -0.145696  0.915340
2
Frame 65   E = -75.33115770 Ha
O  -0.000000  0.009439 -0.053376
H   0.000000 -0.149810  0.914717
2
Frame 66   E = -75.33128174 Ha
O  -0.000000  0.009691 -0.053259
H   0.000000 -0.153805  0.912861
2
Frame 67   E = -75.33149795 Ha
O  -0.000000  0.009935 -0.053067
H   0.000000 -0.157681  0.909808
2
Frame 68   E = -75.33178470 Ha
O  -0.000000  0.010172 -0.052803
H   0.000000 -0.161442  0.905625
2
Frame 69   E = -75.33211175 Ha
O  -0.000000  0.010403 -0.052475
H   0.000000 -0.165099  0.900409
2
Frame 70   E = -75.33244279 Ha
O  -0.000000  0.010628 -0.052089
H   0.000000 -0.168667  0.894292
2
Frame 71   E = -75.33273882 Ha
O  -0.000000  0.010848 -0.051657
H   0.000000 -0.172169  0.887436
2
Frame 72   E = -75.33296261 Ha
O  -0.000000  0.011067 -0.051191
H   0.000000 -0.175637  0.880030
2
Frame 73   E = -75.33308373 Ha
O  -0.000000  0.011285 -0.050703
H   0.000000 -0.179105  0.872292
2
Frame 74   E = -75.33308386 Ha
O  -0.000000  0.011507 -0.050209
H   0.000000 -0.182619  0.864460
2
Frame 75   E = -75.33296134 Ha
O  -0.000000  0.011734 -0.049726
H   0.000000 -0.186226  0.856785
2
Frame 76   E = -75.33273391 Ha
O  -0.000000  0.011971 -0.049268
H   0.000000 -0.189982  0.849526
2
Frame 77   E = -75.33243830 Ha
O  -0.000000  0.012220 -0.048853
H   0.000000 -0.193940  0.842933
2
Frame 78   E = -75.33212584 Ha
O  -0.000000  0.012486 -0.048494
H   0.000000 -0.198157  0.837237
2
Frame 79   E = -75.33185415 Ha
O  -0.000000  0.012771 -0.048204
H   0.000000 -0.202682  0.832637
2
Frame 80   E = -75.33167623 Ha
O  -0.000000  0.013078 -0.047993
H   0.000000 -0.207559  0.829284
2
Frame 81   E = -75.33162929 Ha
O  -0.000000  0.013410 -0.047866
H   0.000000 -0.212819  0.827273
2
Frame 82   E = -75.33172648 Ha
O  -0.000000  0.013766 -0.047826
H   0.000000 -0.218477  0.826634
2
Frame 83   E = -75.33195390 Ha
O  -0.000000  0.014148 -0.047870
H   0.000000 -0.224535  0.827329
2
Frame 84   E = -75.33227384 Ha
O  -0.000000  0.014554 -0.047991
H   0.000000 -0.230975  0.829259
2
Frame 85   E = -75.33263317 Ha
O  -0.000000  0.014981 -0.048181
H   0.000000 -0.237764  0.832268
2
Frame 86   E = -75.33297446 Ha
O  -0.000000  0.015428 -0.048426
H   0.000000 -0.244854  0.836156
2
Frame 87   E = -75.33324682 Ha
O  -0.000000  0.015890 -0.048712
H   0.000000 -0.252187  0.840692
2
Frame 88   E = -75.33341399 Ha
O  -0.000000  0.016363 -0.049023
H   0.000000 -0.259694  0.845629
2
Frame 89   E = -75.33345850 Ha
O  -0.000000  0.016843 -0.049343
H   0.000000 -0.267305  0.850716
2
Frame 90   E = -75.33338195 Ha
O  -0.000000  0.017324 -0.049658
H   0.000000 -0.274946  0.855707
2
Frame 91   E = -75.33320225 Ha
O  -0.000000  0.017803 -0.049952
H   0.000000 -0.282545  0.860374
2
Frame 92   E = -75.33294908 Ha
O  -0.000000  0.018275 -0.050213
H   0.000000 -0.290035  0.864510
2
Frame 93   E = -75.33265872 Ha
O  -0.000000  0.018736 -0.050428
H   0.000000 -0.297352  0.867933
2
Frame 94   E = -75.33236916 Ha
O  -0.000000  0.019183 -0.050589
H   0.000000 -0.304442  0.870491
2
Frame 95   E = -75.33211586 Ha
O  -0.000000  0.019612 -0.050688
H   0.000000 -0.311256  0.872062
2
Frame 96   E = -75.33192855 Ha
O  -0.000000  0.020022 -0.050719
H   0.000000 -0.317757  0.872553
2
Frame 97   E = -75.33182889 Ha
O  -0.000000  0.020409 -0.050678
H   0.000000 -0.323913  0.871903
2
Frame 98   E = -75.33182905 Ha
O  -0.000000  0.020774 -0.050564
H   0.000000 -0.329704  0.870079
2
Frame 99   E = -75.33193094 Ha
O  -0.000000  0.021116 -0.050374
H   0.000000 -0.335120  0.867078
2
Frame 100   E = -75.33212620 Ha
O  -0.000000  0.021433 -0.050113
H   0.000000 -0.340162  0.862927
2
Frame 101   E = -75.33239678 Ha
O  -0.000000  0.021728 -0.049782
H   0.000000 -0.344841  0.857681
2
Frame 102   E = -75.33271616 Ha
O  -0.000000  0.022001 -0.049388
H   0.000000 -0.349179  0.851424
2
Frame 103   E = -75.33305142 Ha
O  -0.000000  0.022256 -0.048937
H   0.000000 -0.353213  0.844267
2
Frame 104   E = -75.33336607 Ha
O  -0.000000  0.022494 -0.048438
H   0.000000 -0.356991  0.836350
2
Frame 105   E = -75.33362376 Ha
O  -0.000000  0.022719 -0.047902
H   0.000000 -0.360574  0.827839
2
Frame 106   E = -75.33379279 Ha
O  -0.000000  0.022938 -0.047340
H   0.000000 -0.364036  0.818921
2
Frame 107   E = -75.33385093 Ha
O  -0.000000  0.023154 -0.046766
H   0.000000 -0.367464  0.809807
2
Frame 108   E = -75.33378998 Ha
O  -0.000000  0.023373 -0.046193
H   0.000000 -0.370953  0.800718
2
Frame 109   E = -75.33361905 Ha
O  -0.000000  0.023604 -0.045636
H   0.000000 -0.374607  0.791884
2
Frame 110   E = -75.33336542 Ha
O  -0.000000  0.023851 -0.045110
H   0.000000 -0.378534  0.783531
2
Frame 111   E = -75.33307214 Ha
O  -0.000000  0.024122 -0.044628
H   0.000000 -0.382839  0.775874
2
Frame 112   E = -75.33279176 Ha
O  -0.000000  0.024424 -0.044201
H   0.000000 -0.387621  0.769101
2
Frame 113   E = -75.33257718 Ha
O  -0.000000  0.024760 -0.043839
H   0.000000 -0.392963  0.763362
2
Frame 114   E = -75.33247112 Ha
O  -0.000000  0.025136 -0.043550
H   0.000000 -0.398929  0.758763
2
Frame 115   E = -75.33249703 Ha
O  -0.000000  0.025554 -0.043335
H   0.000000 -0.405556  0.755353
2
Frame 116   E = -75.33265386 Ha
O  -0.000000  0.026014 -0.043194
H   0.000000 -0.412853  0.753124
2
Frame 117   E = -75.33291633 Ha
O  -0.000000  0.026514 -0.043124
H   0.000000 -0.420799  0.752011
2
Frame 118   E = -75.33324058 Ha
O  -0.000000  0.027052 -0.043117
H   0.000000 -0.429340  0.751900
2
Frame 119   E = -75.33357347 Ha
O  -0.000000  0.027623 -0.043163
H   0.000000 -0.438397  0.752631
2
Frame 120   E = -75.33386301 Ha
O  -0.000000  0.028220 -0.043250
H   0.000000 -0.447872  0.754016
2
Frame 121   E = -75.33406729 Ha
O  -0.000000  0.028836 -0.043366
H   0.000000 -0.457646  0.755844
2
Frame 122   E = -75.33416032 Ha
O  -0.000000  0.029463 -0.043495
H   0.000000 -0.467595  0.757900
2
Frame 123   E = -75.33413411 Ha
O  -0.000000  0.030092 -0.043626
H   0.000000 -0.477588  0.759968
2
Frame 124   E = -75.33399755 Ha
O  -0.000000  0.030717 -0.043744
H   0.000000 -0.487499  0.761846
2
Frame 125   E = -75.33377303 Ha
O  -0.000000  0.031328 -0.043838
H   0.000000 -0.497206  0.763347
2
Frame 126   E = -75.33349190 Ha
O  -0.000000  0.031920 -0.043899
H   0.000000 -0.506596  0.764304
2
Frame 127   E = -75.33318977 Ha
O  -0.000000  0.032486 -0.043916
H   0.000000 -0.515570  0.764576
2
Frame 128   E = -75.33290220 Ha
O  -0.000000  0.033019 -0.043883
H   0.000000 -0.524040  0.764048
2
Frame 129   E = -75.33266121 Ha
O  -0.000000  0.033517 -0.043793
H   0.000000 -0.531935  0.762627
2
Frame 130   E = -75.33249258 Ha
O  -0.000000  0.033974 -0.043643
H   0.000000 -0.539197  0.760250
2
Frame 131   E = -75.33241410 Ha
O  -0.000000  0.034389 -0.043431
H   0.000000 -0.545785  0.756875
2
Frame 132   E = -75.33243435 Ha
O  -0.000000  0.034761 -0.043154
H   0.000000 -0.551677  0.752488
2
Frame 133   E = -75.33255231 Ha
O  -0.000000  0.035087 -0.042815
H   0.000000 -0.556863  0.747098
2
Frame 134   E = -75.33275741 Ha
O  -0.000000  0.035370 -0.042414
H   0.000000 -0.561354  0.740737
2
Frame 135   E = -75.33303019 Ha
O  -0.000000  0.035611 -0.041955
H   0.000000 -0.565180  0.733461
2
Frame 136   E = -75.33334363 Ha
O  -0.000000  0.035813 -0.041444
H   0.000000 -0.568386  0.725348
2
Frame 137   E = -75.33366510 Ha
O  -0.000000  0.035981 -0.040887
H   0.000000 -0.571039  0.716501
2
Frame 138   E = -75.33395922 Ha
O  -0.000000  0.036118 -0.040291
H   0.000000 -0.573224  0.707041
2
Frame 139   E = -75.33419146 Ha
O  -0.000000  0.036233 -0.039665
H   0.000000 -0.575048  0.697110
2
Frame 140   E = -75.33433246 Ha
O  -0.000000  0.036333 -0.039020
H   0.000000 -0.576633  0.686870
2
Frame 141   E = -75.33436258 Ha
O  -0.000000  0.036427 -0.038366
H   0.000000 -0.578120  0.676493
2
Frame 142   E = -75.33427614 Ha
O  -0.000000  0.036524 -0.037715
H   0.000000 -0.579661  0.666163
2
Frame 143   E = -75.33408426 Ha
O  -0.000000  0.036635 -0.037079
H   0.000000 -0.581418  0.656067
2
Frame 144   E = -75.33381539 Ha
O  -0.000000  0.036769 -0.036469
H   0.000000 -0.583556  0.646387
2
Frame 145   E = -75.33351251 Ha
O  -0.000000  0.036938 -0.035896
H   0.000000 -0.586232  0.637290
2
Frame 146   E = -75.33322687 Ha
O  -0.000000  0.037150 -0.035369
H   0.000000 -0.589590  0.628923
2
Frame 147   E = -75.33300896 Ha
O  -0.000000  0.037411 -0.034894
H   0.000000 -0.593747  0.621400
2
Frame 148   E = -75.33289852 Ha
O  -0.000000  0.037729 -0.034478
H   0.000000 -0.598792  0.614796
2
Frame 149   E = -75.33291612 Ha
O  -0.000000  0.038106 -0.034122
H   0.000000 -0.604770  0.609142
2
Frame 150   E = -75.33305858 Ha
O  -0.000000  0.038542 -0.033825
H   0.000000 -0.611683  0.604424
2
Frame 151   E = -75.33329969 Ha
O  -0.000000  0.039033 -0.033583
H   0.000000 -0.619489  0.600584
2
Frame 152   E = -75.33359597 Ha
O  -0.000000  0.039576 -0.033390
H   0.000000 -0.628104  0.597526
2
Frame 153   E = -75.33389577 Ha
O  -0.000000  0.040162 -0.033239
H   0.000000 -0.637406  0.595121
2
Frame 154   E = -75.33414921 Ha
O  -0.000000  0.040782 -0.033119
H   0.000000 -0.647244  0.593220
2
Frame 155   E = -75.33431666 Ha
O  -0.000000  0.041425 -0.033021
H   0.000000 -0.657448  0.591660
2
Frame 156   E = -75.33437406 Ha
O  -0.000000  0.042080 -0.032933
H   0.000000 -0.667836  0.590275
2
Frame 157   E = -75.33431484 Ha
O  -0.000000  0.042734 -0.032847
H   0.000000 -0.678224  0.588902
2
Frame 158   E = -75.33414865 Ha
O  -0.000000  0.043377 -0.032751
H   0.000000 -0.688432  0.587389
2
Frame 159   E = -75.33389810 Ha
O  -0.000000  0.043999 -0.032639
H   0.000000 -0.698291  0.585598
2
Frame 160   E = -75.33359431 Ha
O  -0.000000  0.044588 -0.032501
H   0.000000 -0.707648  0.583407
2
Frame 161   E = -75.33327241 Ha
O  -0.000000  0.045138 -0.032331
H   0.000000 -0.716366  0.580716
2
Frame 162   E = -75.33296735 Ha
O  -0.000000  0.045639 -0.032125
H   0.000000 -0.724329  0.577441
2
Frame 163   E = -75.33271052 Ha
O  -0.000000  0.046088 -0.031878
H   0.000000 -0.731443  0.573520
2
Frame 164   E = -75.33252714 Ha
O  -0.000000  0.046478 -0.031587
H   0.000000 -0.737635  0.568911
2
Frame 165   E = -75.33243444 Ha
O  -0.000000  0.046807 -0.031252
H   0.000000 -0.742856  0.563589
2
Frame 166   E = -75.33244057 Ha
O  -0.000000  0.047073 -0.030871
H   0.000000 -0.747079  0.557547
2
Frame 167   E = -75.33254407 Ha
O  -0.000000  0.047276 -0.030446
H   0.000000 -0.750301  0.550799
2
Frame 168   E = -75.33273392 Ha
O  -0.000000  0.047417 -0.029978
H   0.000000 -0.752544  0.543372
2
Frame 169   E = -75.33299022 Ha
O  -0.000000  0.047500 -0.029470
H   0.000000 -0.753853  0.535313
2
Frame 170   E = -75.33328540 Ha
O  -0.000000  0.047528 -0.028926
H   0.000000 -0.754300  0.526682
2
Frame 171   E = -75.33358633 Ha
O  -0.000000  0.047508 -0.028351
H   0.000000 -0.753979  0.517558
2
Frame 172   E = -75.33385711 Ha
O  -0.000000  0.047447 -0.027751
H   0.000000 -0.753013  0.508031
2
Frame 173   E = -75.33406285 Ha
O  -0.000000  0.047354 -0.027132
H   0.000000 -0.751547  0.498208
2
Frame 174   E = -75.33417408 Ha
O  -0.000000  0.047241 -0.026502
H   0.000000 -0.749753  0.488205
2
Frame 175   E = -75.33417144 Ha
O  -0.000000  0.047119 -0.025868
H   0.000000 -0.747819  0.478147
2
Frame 176   E = -75.33405007 Ha
O  -0.000000  0.047002 -0.025239
H   0.000000 -0.745950  0.468167
2
Frame 177   E = -75.33382248 Ha
O  -0.000000  0.046901 -0.024624
H   0.000000 -0.744360  0.458394
2
Frame 178   E = -75.33351894 Ha
O  -0.000000  0.046832 -0.024029
H   0.000000 -0.743264  0.448957
2
Frame 179   E = -75.33318447 Ha
O  -0.000000  0.046807 -0.023463
H   0.000000 -0.742864  0.439969
2
Frame 180   E = -75.33287216 Ha
O  -0.000000  0.046837 -0.022931
H   0.000000 -0.743343  0.431528
2
Frame 181   E = -75.33263366 Ha
O  -0.000000  0.046932 -0.022438
H   0.000000 -0.744848  0.423709
2
Frame 182   E = -75.33250887 Ha
O  -0.000000  0.047098 -0.021987
H   0.000000 -0.747481  0.416557
2
Frame 183   E = -75.33251728 Ha
O  -0.000000  0.047338 -0.021580
H   0.000000 -0.751294  0.410088
2
Frame 184   E = -75.33265364 Ha
O  -0.000000  0.047653 -0.021214
H   0.000000 -0.756280  0.404286
2
Frame 185   E = -75.33288909 Ha
O  -0.000000  0.048037 -0.020888
H   0.000000 -0.762375  0.399104
2
Frame 186   E = -75.33317752 Ha
O  -0.000000  0.048483 -0.020596
H   0.000000 -0.769464  0.394473
2
Frame 187   E = -75.33346530 Ha
O  -0.000000  0.048982 -0.020333
H   0.000000 -0.777387  0.390303
2
Frame 188   E = -75.33370160 Ha
O  -0.000000  0.049522 -0.020093
H   0.000000 -0.785948  0.386491
2
Frame 189   E = -75.33384695 Ha
O  -0.000000  0.050088 -0.019869
H   0.000000 -0.794933  0.382928
2
Frame 190   E = -75.33387852 Ha
O  -0.000000  0.050666 -0.019653
H   0.000000 -0.804114  0.379505
2
Frame 191   E = -75.33379169 Ha
O  -0.000000  0.051243 -0.019439
H   0.000000 -0.813263  0.376118
2
Frame 192   E = -75.33359846 Ha
O  -0.000000  0.051804 -0.019222
H   0.000000 -0.822163  0.372669
2
Frame 193   E = -75.33332380 Ha
O  -0.000000  0.052336 -0.018996
H   0.000000 -0.830611  0.369075
2
Frame 194   E = -75.33300090 Ha
O  -0.000000  0.052828 -0.018755
H   0.000000 -0.838424  0.365261
2
Frame 195   E = -75.33266644 Ha
O  -0.000000  0.053271 -0.018498
H   0.000000 -0.845444  0.361169
2
Frame 196   E = -75.33235629 Ha
O  -0.000000  0.053655 -0.018219
H   0.000000 -0.851538  0.356752
2
Frame 197   E = -75.33210196 Ha
O  -0.000000  0.053974 -0.017918
H   0.000000 -0.856603  0.351975
2
Frame 198   E = -75.33192802 Ha
O  -0.000000  0.054223 -0.017593
H   0.000000 -0.860560  0.346820
2
Frame 199   E = -75.33185024 Ha
O  -0.000000  0.054400 -0.017244
H   0.000000 -0.863364  0.341275
2
Frame 200   E = -75.33187455 Ha
O  -0.000000  0.054502 -0.016870
H   0.000000 -0.864993  0.335344
2
Frame 201   E = -75.33199655 Ha
O  -0.000000  0.054532 -0.016473
H   0.000000 -0.865457  0.329040
2
Frame 202   E = -75.33220178 Ha
O  -0.000000  0.054490 -0.016054
H   0.000000 -0.864796  0.322385
2
Frame 203   E = -75.33246656 Ha
O  -0.000000  0.054382 -0.015615
H   0.000000 -0.863078  0.315413
2
Frame 204   E = -75.33275965 Ha
O  -0.000000  0.054213 -0.015158
H   0.000000 -0.860401  0.308166
2
Frame 205   E = -75.33304474 Ha
O  -0.000000  0.053992 -0.014687
H   0.000000 -0.856895  0.300695
2
Frame 206   E = -75.33328394 Ha
O  -0.000000  0.053729 -0.014206
H   0.000000 -0.852719  0.293058
2
Frame 207   E = -75.33344211 Ha
O  -0.000000  0.053435 -0.013718
H   0.000000 -0.848057  0.285321
2
Frame 208   E = -75.33349194 Ha
O  -0.000000  0.053124 -0.013229
H   0.000000 -0.843123  0.277556
2
Frame 209   E = -75.33341896 Ha
O  -0.000000  0.052811 -0.012743
H   0.000000 -0.838148  0.269836
2
Frame 210   E = -75.33322583 Ha
O  -0.000000  0.052510 -0.012264
H   0.000000 -0.833378  0.262237
2
Frame 211   E = -75.33293443 Ha
O  -0.000000  0.052239 -0.011797
H   0.000000 -0.829064  0.254832
2
Frame 212   E = -75.33258482 Ha
O  -0.000000  0.052011 -0.011347
H   0.000000 -0.825449  0.247690
2
Frame 213   E = -75.33223008 Ha
O  -0.000000  0.051841 -0.010918
H   0.000000 -0.822758  0.240869
2
Frame 214   E = -75.33192751 Ha
O  -0.000000  0.051742 -0.010511
H   0.000000 -0.821180  0.234414
2
Frame 215   E = -75.33172750 Ha
O  -0.000000  0.051722 -0.010129
H   0.000000 -0.820860  0.228358
2
Frame 216   E = -75.33166283 Ha
O  -0.000000  0.051786 -0.009774
H   0.000000 -0.821882  0.222712
2
Frame 217   E = -75.33174128 Ha
O  -0.000000  0.051936 -0.009443
H   0.000000 -0.824270  0.217475
2
Frame 218   E = -75.33194378 Ha
O  -0.000000  0.052170 -0.009138
H   0.000000 -0.827977  0.212624
2
Frame 219   E = -75.33222877 Ha
O  -0.000000  0.052480 -0.008854
H   0.000000 -0.832898  0.208125
2
Frame 220   E = -75.33254134 Ha
O  -0.000000  0.052856 -0.008590
H   0.000000 -0.838868  0.203932
2
Frame 221   E = -75.33282455 Ha
O  -0.000000  0.053286 -0.008342
H   0.000000 -0.845682  0.199991
2
Frame 222   E = -75.33302989 Ha
O  -0.000000  0.053753 -0.008106
H   0.000000 -0.853103  0.196246
2
Frame 223   E = -75.33312480 Ha
O  -0.000000  0.054243 -0.007879
H   0.000000 -0.860880  0.192637
2
Frame 224   E = -75.33309602 Ha
O  -0.000000  0.054739 -0.007656
H   0.000000 -0.868755  0.189112
2
Frame 225   E = -75.33294926 Ha
O  -0.000000  0.055226 -0.007436
H   0.000000 -0.876480  0.185620
2
Frame 226   E = -75.33270596 Ha
O  -0.000000  0.055689 -0.007216
H   0.000000 -0.883822  0.182116
2
Frame 227   E = -75.33239846 Ha
O  -0.000000  0.056114 -0.006992
H   0.000000 -0.890570  0.178566
2
Frame 228   E = -75.33206473 Ha
O  -0.000000  0.056490 -0.006763
H   0.000000 -0.896540  0.174937
2
Frame 229   E = -75.33174342 Ha
O  -0.000000  0.056808 -0.006528
H   0.000000 -0.901578  0.171210
2
Frame 230   E = -75.33146970 Ha
O  -0.000000  0.057059 -0.006286
H   0.000000 -0.905560  0.167366
2
Frame 231   E = -75.33127202 Ha
O  -0.000000  0.057237 -0.006036
H   0.000000 -0.908395  0.163398
2
Frame 232   E = -75.33116984 Ha
O  -0.000000  0.057340 -0.005778
H   0.000000 -0.910024  0.159302
2
Frame 233   E = -75.33117223 Ha
O  -0.000000  0.057365 -0.005512
H   0.000000 -0.910418  0.155079
2
Frame 234   E = -75.33127721 Ha
O  -0.000000  0.057312 -0.005238
H   0.000000 -0.909584  0.150737
2
Frame 235   E = -75.33147180 Ha
O  -0.000000  0.057184 -0.004958
H   0.000000 -0.907559  0.146285
2
Frame 236   E = -75.33173287 Ha
O  -0.000000  0.056986 -0.004672
H   0.000000 -0.904413  0.141741
2
Frame 237   E = -75.33202877 Ha
O  -0.000000  0.056724 -0.004381
H   0.000000 -0.900251  0.137122
2
Frame 238   E = -75.33232192 Ha
O  -0.000000  0.056406 -0.004086
H   0.000000 -0.895208  0.132450
2
Frame 239   E = -75.33257246 Ha
O  -0.000000  0.056044 -0.003790
H   0.000000 -0.889452  0.127752
2
Frame 240   E = -75.33274285 Ha
O  -0.000000  0.055649 -0.003494
H   0.000000 -0.883184  0.123055
2
Frame 241   E = -75.33280325 Ha
O  -0.000000  0.055236 -0.003200
H   0.000000 -0.876628  0.118387
2
Frame 242   E = -75.33273704 Ha
O  -0.000000  0.054820 -0.002910
H   0.000000 -0.870034  0.113779
2
Frame 243   E = -75.33254551 Ha
O  -0.000000  0.054419 -0.002625
H   0.000000 -0.863664  0.109261
2
Frame 244   E = -75.33225037 Ha
O  -0.000000  0.054048 -0.002348
H   0.000000 -0.857787  0.104861
2
Frame 245   E = -75.33189284 Ha
O  -0.000000  0.053726 -0.002080
H   0.000000 -0.852663  0.100604
2
Frame 246   E = -75.33152845 Ha
O  -0.000000  0.053465 -0.001822
H   0.000000 -0.848534  0.096512
2
Frame 247   E = -75.33121770 Ha
O  -0.000000  0.053281 -0.001575
H   0.000000 -0.845600  0.092599
2
Frame 248   E = -75.33101420 Ha
O  -0.000000  0.053181 -0.001341
H   0.000000 -0.844017  0.088875
2
Frame 249   E = -75.33095307 Ha
O  -0.000000  0.053172 -0.001118
H   0.000000 -0.843874  0.085343
2
Frame 250   E = -75.33104296 Ha
O  -0.000000  0.053255 -0.000907
H   0.000000 -0.845195  0.081999
2
Frame 251   E = -75.33126392 Ha
O  -0.000000  0.053427 -0.000708
H   0.000000 -0.847929  0.078831
2
Frame 252   E = -75.33157211 Ha
O  -0.000000  0.053681 -0.000518
H   0.000000 -0.851961  0.075827
2
Frame 253   E = -75.33190954 Ha
O  -0.000000  0.054006 -0.000338
H   0.000000 -0.857117  0.072968
2
Frame 254   E = -75.33221624 Ha
O  -0.000000  0.054388 -0.000166
H   0.000000 -0.863177  0.070234
2
Frame 255   E = -75.33244143 Ha
O  -0.000000  0.054811 -0.000000
H   0.000000 -0.869890  0.067607
2
Frame 256   E = -75.33255141 Ha
O  -0.000000  0.055258  0.000160
H   0.000000 -0.876990  0.065067
2
Frame 257   E = -75.33253300 Ha
O  -0.000000  0.055713  0.000315
H   0.000000 -0.884207  0.062599
2
Frame 258   E = -75.33239302 Ha
O  -0.000000  0.056159  0.000467
H   0.000000 -0.891280  0.060188
2
Frame 259   E = -75.33215462 Ha
O  -0.000000  0.056580  0.000616
H   0.000000 -0.897966  0.057823
2
Frame 260   E = -75.33185214 Ha
O  -0.000000  0.056963  0.000763
H   0.000000 -0.904048  0.055496
2
Frame 261   E = -75.33152539 Ha
O  -0.000000  0.057296  0.000907
H   0.000000 -0.909336  0.053201
2
Frame 262   E = -75.33121445 Ha
O  -0.000000  0.057570  0.001050
H   0.000000 -0.913672  0.050934
2
Frame 263   E = -75.33095532 Ha
O  -0.000000  0.057775  0.001191
H   0.000000 -0.916934  0.048694
2
Frame 264   E = -75.33077655 Ha
O  -0.000000  0.057907  0.001331
H   0.000000 -0.919029  0.046481
2
Frame 265   E = -75.33069699 Ha
O  -0.000000  0.057962  0.001468
H   0.000000 -0.919901  0.044297
2
Frame 266   E = -75.33072437 Ha
O  -0.000000  0.057939  0.001604
H   0.000000 -0.919528  0.042142
2
Frame 267   E = -75.33085477 Ha
O  -0.000000  0.057837  0.001738
H   0.000000 -0.917922  0.040022
2
Frame 268   E = -75.33107282 Ha
O  -0.000000  0.057661  0.001869
H   0.000000 -0.915127  0.037939
2
Frame 269   E = -75.33135280 Ha
O  -0.000000  0.057415  0.001998
H   0.000000 -0.911225  0.035898
2
Frame 270   E = -75.33166055 Ha
O  -0.000000  0.057107  0.002123
H   0.000000 -0.906328  0.033902
2
Frame 271   E = -75.33195648 Ha
O  -0.000000  0.056745  0.002246
H   0.000000 -0.900585  0.031956
2
Frame 272   E = -75.33219963 Ha
O  -0.000000  0.056341  0.002365
H   0.000000 -0.894176  0.030064
2
Frame 273   E = -75.33235275 Ha
O  -0.000000  0.055909  0.002481
H   0.000000 -0.887314  0.028231
2
Frame 274   E = -75.33238799 Ha
O  -0.000000  0.055463  0.002592
H   0.000000 -0.880235  0.026459
2
Frame 275   E = -75.33229260 Ha
O  -0.000000  0.055020  0.002700
H   0.000000 -0.873200  0.024752
2
Frame 276   E = -75.33207329 Ha
O  -0.000000  0.054596  0.002803
H   0.000000 -0.866481  0.023114
2
Frame 277   E = -75.33175808 Ha
O  -0.000000  0.054210  0.002902
H   0.000000 -0.860351  0.021545
2
Frame 278   E = -75.33139413 Ha
O  -0.000000  0.053877  0.002996
H   0.000000 -0.855072  0.020046
2
Frame 279   E = -75.33104111 Ha
O  -0.000000  0.053613  0.003086
H   0.000000 -0.850881  0.018619
2
Frame 280   E = -75.33076050 Ha
O  -0.000000  0.053430  0.003172
H   0.000000 -0.847971  0.017262
2
Frame 281   E = -75.33060305 Ha
O  -0.000000  0.053336  0.003253
H   0.000000 -0.846480  0.015974
2
Frame 282   E = -75.33059750 Ha
O  -0.000000  0.053336  0.003330
H   0.000000 -0.846480  0.014753
2
Frame 283   E = -75.33074385 Ha
O  -0.000000  0.053430  0.003403
H   0.000000 -0.847973  0.013597
2
Frame 284   E = -75.33101341 Ha
O  -0.000000  0.053613  0.003472
H   0.000000 -0.850885  0.012503
2
Frame 285   E = -75.33135542 Ha
O  -0.000000  0.053878  0.003537
H   0.000000 -0.855079  0.011471
2
Frame 286   E = -75.33170836 Ha
O  -0.000000  0.054211  0.003598
H   0.000000 -0.860360  0.010499
2
Frame 287   E = -75.33201250 Ha
O  -0.000000  0.054597  0.003655
H   0.000000 -0.866494  0.009587
2
Frame 288   E = -75.33222062 Ha
O  -0.000000  0.055021  0.003709
H   0.000000 -0.873217  0.008734
2
Frame 289   E = -75.33230471 Ha
O  -0.000000  0.055464  0.003759
H   0.000000 -0.880257  0.007944
2
Frame 290   E = -75.33225813 Ha
O  -0.000000  0.055910  0.003805
H   0.000000 -0.887339  0.007218
2
Frame 291   E = -75.33209379 Ha
O  -0.000000  0.056343  0.003846
H   0.000000 -0.894206  0.006558
2
Frame 292   E = -75.33183973 Ha
O  -0.000000  0.056747  0.003883
H   0.000000 -0.900617  0.005968
2
Frame 293   E = -75.33153345 Ha
O  -0.000000  0.057109  0.003916
H   0.000000 -0.906362  0.005451
2
Frame 294   E = -75.33121618 Ha
O  -0.000000  0.057418  0.003944
H   0.000000 -0.911259  0.005010
2
Frame 295   E = -75.33092771 Ha
O  -0.000000  0.057663  0.003966
H   0.000000 -0.915161  0.004649
2
Frame 296   E = -75.33070230 Ha
O  -0.000000  0.057839  0.003984
H   0.000000 -0.917953  0.004368
2
Frame 297   E = -75.33056569 Ha
O  -0.000000  0.057940  0.003997
H   0.000000 -0.919557  0.004171
2
Frame 298   E = -75.33053304 Ha
O  -0.000000  0.057964  0.004004
H   0.000000 -0.919927  0.004057
2
Frame 299   E = -75.33060793 Ha
O  -0.000000  0.057909  0.004006
H   0.000000 -0.919054  0.004028
2
Frame 300   E = -75.33078203 Ha
O  -0.000000  0.057777  0.004002
H   0.000000 -0.916960  0.004084
2
Frame 301   E = -75.33103574 Ha
O  -0.000000  0.057572  0.003993
H   0.000000 -0.913706  0.004222
2
Frame 302   E = -75.33133959 Ha
O  -0.000000  0.057299  0.003980
H   0.000000 -0.909384  0.004441
2
Frame 303   E = -75.33165666 Ha
O  -0.000000  0.056968  0.003961
H   0.000000 -0.904122  0.004739
2
Frame 304   E = -75.33194600 Ha
O  -0.000000  0.056587  0.003937
H   0.000000 -0.898082  0.005112
2
Frame 305   E = -75.33216721 Ha
O  -0.000000  0.056170  0.003909
H   0.000000 -0.891458  0.005558
2
Frame 306   E = -75.33228585 Ha
O  -0.000000  0.055730  0.003877
H   0.000000 -0.884471  0.006073
2
Frame 307   E = -75.33227933 Ha
O  -0.000000  0.055282  0.003840
H   0.000000 -0.877372  0.006653
2
Frame 308   E = -75.33214218 Ha
O  -0.000000  0.054845  0.003800
H   0.000000 -0.870425  0.007297
2
Frame 309   E = -75.33188966 Ha
O  -0.000000  0.054434  0.003755
H   0.000000 -0.863905  0.008000
2
Frame 310   E = -75.33155806 Ha
O  -0.000000  0.054067  0.003707
H   0.000000 -0.858084  0.008762
2
Frame 311   E = -75.33120076 Ha
O  -0.000000  0.053760  0.003656
H   0.000000 -0.853214  0.009581
2
Frame 312   E = -75.33087972 Ha
O  -0.000000  0.053527  0.003600
H   0.000000 -0.849518  0.010458
2
Frame 313   E = -75.33065371 Ha
O  -0.000000  0.053379  0.003542
H   0.000000 -0.847168  0.011392
2
Frame 314   E = -75.33056579 Ha
O  -0.000000  0.053323  0.003479
H   0.000000 -0.846276  0.012385
2
Frame 315   E = -75.33063356 Ha
O  -0.000000  0.053361  0.003413
H   0.000000 -0.846886  0.013438
2
Frame 316   E = -75.33084499 Ha
O  -0.000000  0.053493  0.003342
H   0.000000 -0.848968  0.014555
2
Frame 317   E = -75.33116127 Ha
O  -0.000000  0.053710  0.003268
H   0.000000 -0.852422  0.015736
2
Frame 318   E = -75.33152576 Ha
O  -0.000000  0.054004  0.003189
H   0.000000 -0.857086  0.016982
2
Frame 319   E = -75.33187616 Ha
O  -0.000000  0.054361  0.003107
H   0.000000 -0.862747  0.018295
2
Frame 320   E = -75.33215670 Ha
O  -0.000000  0.054765  0.003020
H   0.000000 -0.869157  0.019675
2
Frame 321   E = -75.33232738 Ha
O  -0.000000  0.055199  0.002928
H   0.000000 -0.876047  0.021122
2
Frame 322   E = -75.33236877 Ha
O  -0.000000  0.055646  0.002833
H   0.000000 -0.883142  0.022635
2
Frame 323   E = -75.33228246 Ha
O  -0.000000  0.056089  0.002734
H   0.000000 -0.890173  0.024212
2
Frame 324   E = -75.33208798 Ha
O  -0.000000  0.056512  0.002631
H   0.000000 -0.896890  0.025851
2
Frame 325   E = -75.33181775 Ha
O  -0.000000  0.056901  0.002524
H   0.000000 -0.903064  0.027549
2
Frame 326   E = -75.33151124 Ha
O  -0.000000  0.057243  0.002413
H   0.000000 -0.908495  0.029304
2
Frame 327   E = -75.33120948 Ha
O  -0.000000  0.057528  0.002299
H   0.000000 -0.913016  0.031113
2
Frame 328   E = -75.33095034 Ha
O  -0.000000  0.057747  0.002182
H   0.000000 -0.916492  0.032972
2
Frame 329   E = -75.33076486 Ha
O  -0.000000  0.057894  0.002062
H   0.000000 -0.918823  0.034878
2
Frame 330   E = -75.33067476 Ha
O  -0.000000  0.057965  0.001939
H   0.000000 -0.919943  0.036827
2
Frame 331   E = -75.33069080 Ha
O  -0.000000  0.057957  0.001814
H   0.000000 -0.919821  0.038818
2
Frame 332   E = -75.33081211 Ha
O  -0.000000  0.057871  0.001686
H   0.000000 -0.918459  0.040846
2
Frame 333   E = -75.33102624 Ha
O  -0.000000  0.057710  0.001556
H   0.000000 -0.915893  0.042911
2
Frame 334   E = -75.33131006 Ha
O  -0.000000  0.057477  0.001423
H   0.000000 -0.912195  0.045010
2
Frame 335   E = -75.33163154 Ha
O  -0.000000  0.057179  0.001289
H   0.000000 -0.907468  0.047144
2
Frame 336   E = -75.33195244 Ha
O  -0.000000  0.056825  0.001152
H   0.000000 -0.901852  0.049315
2
Frame 337   E = -75.33223210 Ha
O  -0.000000  0.056426  0.001013
H   0.000000 -0.895518  0.051526
2
Frame 338   E = -75.33243221 Ha
O  -0.000000  0.055994  0.000871
H   0.000000 -0.888667  0.053782
2
Frame 339   E = -75.33252233 Ha
O  -0.000000  0.055544  0.000725
H   0.000000 -0.881529  0.056090
2
Frame 340   E = -75.33248550 Ha
O  -0.000000  0.055092  0.000576
H   0.000000 -0.874355  0.058462
2
Frame 341   E = -75.33232294 Ha
O  -0.000000  0.054655  0.000422
H   0.000000 -0.867413  0.060910
2
Frame 342   E = -75.33205662 Ha
O  -0.000000  0.054249  0.000262
H   0.000000 -0.860972  0.063449
2
Frame 343   E = -75.33172820 Ha
O  -0.000000  0.053891  0.000095
H   0.000000 -0.855295  0.066095
2
Frame 344   E = -75.33139367 Ha
O  -0.000000  0.053597 -0.000080
H   0.000000 -0.850622  0.068866
2
Frame 345   E = -75.33111387 Ha
O  -0.000000  0.053379 -0.000263
H   0.000000 -0.847157  0.071778
2
Frame 346   E = -75.33094244 Ha
O  -0.000000  0.053246 -0.000457
H   0.000000 -0.845051  0.074847
2
Frame 347   E = -75.33091426 Ha
O  -0.000000  0.053204 -0.000661
H   0.000000 -0.844393  0.078083
2
Frame 348   E = -75.33103748 Ha
O  -0.000000  0.053255 -0.000876
H   0.000000 -0.845202  0.081495
2
Frame 349   E = -75.33129160 Ha
O  -0.000000  0.053396 -0.001102
H   0.000000 -0.847427  0.085084
2
Frame 350   E = -75.33163230 Ha
O  -0.000000  0.053617 -0.001339
H   0.000000 -0.850949  0.088845
2
Frame 351   E = -75.33200136 Ha
O  -0.000000  0.053910 -0.001586
H   0.000000 -0.855591  0.092768
2
Frame 352   E = -75.33233883 Ha
O  -0.000000  0.054259 -0.001842
H   0.000000 -0.861133  0.096837
2
Frame 353   E = -75.33259413 Ha
O  -0.000000  0.054649 -0.002107
H   0.000000 -0.867324  0.101032
2
Frame 354   E = -75.33273381 Ha
O  -0.000000  0.055063 -0.002377
H   0.000000 -0.873896  0.105330
2
Frame 355   E = -75.33274491 Ha
O  -0.000000  0.055485 -0.002653
H   0.000000 -0.880582  0.109703
2
Frame 356   E = -75.33263425 Ha
O  -0.000000  0.055897 -0.002932
H   0.000000 -0.887123  0.114126
2
Frame 357   E = -75.33242480 Ha
O  -0.000000  0.056285 -0.003212
H   0.000000 -0.893277  0.118571
2
Frame 358   E = -75.33215048 Ha
O  -0.000000  0.056634 -0.003492
H   0.000000 -0.898829  0.123012
2
Frame 359   E = -75.33185059 Ha
O  -0.000000  0.056935 -0.003770
H   0.000000 -0.903593  0.127426
2
Frame 360   E = -75.33156466 Ha
O  -0.000000  0.057175 -0.004045
H   0.000000 -0.907413  0.131790
2
Frame 361   E = -75.33132820 Ha
O  -0.000000  0.057349 -0.004315
H   0.000000 -0.910166  0.136086
2
Frame 362   E = -75.33116957 Ha
O  -0.000000  0.057449 -0.004581
H   0.000000 -0.911763  0.140297
2
Frame 363   E = -75.33110769 Ha
O  -0.000000  0.057473 -0.004840
H   0.000000 -0.912146  0.144410
2
Frame 364   E = -75.33115085 Ha
O  -0.000000  0.057420 -0.005092
H   0.000000 -0.911292  0.148418
2
Frame 365   E = -75.33129616 Ha
O  -0.000000  0.057288 -0.005338
H   0.000000 -0.909210  0.152315
2
Frame 366   E = -75.33152981 Ha
O  -0.000000  0.057083 -0.005576
H   0.000000 -0.905941  0.156102
2
Frame 367   E = -75.33182807 Ha
O  -0.000000  0.056806 -0.005808
H   0.000000 -0.901560  0.159784
2
Frame 368   E = -75.33215905 Ha
O  -0.000000  0.056467 -0.006034
H   0.000000 -0.896172  0.163371
2
Frame 369   E = -75.33248542 Ha
O  -0.000000  0.056073 -0.006256
H   0.000000 -0.889915  0.166882
2
Frame 370   E = -75.33276810 Ha
O  -0.000000  0.055634 -0.006473
H   0.000000 -0.882959  0.170339
2
Frame 371   E = -75.33297084 Ha
O  -0.000000  0.055164 -0.006690
H   0.000000 -0.875499  0.173772
2
Frame 372   E = -75.33306537 Ha
O  -0.000000  0.054677 -0.006907
H   0.000000 -0.867760  0.177218
2
Frame 373   E = -75.33303674 Ha
O  -0.000000  0.054187 -0.007128
H   0.000000 -0.859982  0.180720
2
Frame 374   E = -75.33288750 Ha
O  -0.000000  0.053710 -0.007355
H   0.000000 -0.852422  0.184326
2
Frame 375   E = -75.33263988 Ha
O  -0.000000  0.053264 -0.007592
H   0.000000 -0.845337  0.188090
2
Frame 376   E = -75.33233453 Ha
O  -0.000000  0.052863 -0.007842
H   0.000000 -0.838975  0.192064
2
Frame 377   E = -75.33202519 Ha
O  -0.000000  0.052522 -0.008109
H   0.000000 -0.833563  0.196302
2
Frame 378   E = -75.33176960 Ha
O  -0.000000  0.052253 -0.008396
H   0.000000 -0.829291  0.200850
2
Frame 379   E = -75.33161824 Ha
O  -0.000000  0.052064 -0.008705
H   0.000000 -0.826297  0.205748
2
Frame 380   E = -75.33160352 Ha
O  -0.000000  0.051961 -0.009037
H   0.000000 -0.824664  0.211023
2
Frame 381   E = -75.33173253 Ha
O  -0.000000  0.051945 -0.009394
H   0.000000 -0.824405  0.216688
2
Frame 382   E = -75.33198540 Ha
O  -0.000000  0.052012 -0.009775
H   0.000000 -0.825469  0.222740
2
Frame 383   E = -75.33231990 Ha
O  -0.000000  0.052155 -0.010180
H   0.000000 -0.827742  0.229157
2
Frame 384   E = -75.33268076 Ha
O  -0.000000  0.052364 -0.010605
H   0.000000 -0.831057  0.235906
2
Frame 385   E = -75.33301100 Ha
O  -0.000000  0.052625 -0.011048
H   0.000000 -0.835205  0.242937
2
Frame 386   E = -75.33326238 Ha
O  -0.000000  0.052924 -0.011505
H   0.000000 -0.839948  0.250191
2
Frame 387   E = -75.33340264 Ha
O  -0.000000  0.053245 -0.011972
H   0.000000 -0.845037  0.257602
2
Frame 388   E = -75.33341878 Ha
O  -0.000000  0.053572 -0.012444
H   0.000000 -0.850220  0.265099
2
Frame 389   E = -75.33331647 Ha
O  -0.000000  0.053889 -0.012918
H   0.000000 -0.855253  0.272611
2
Frame 390   E = -75.33311686 Ha
O  -0.000000  0.054182 -0.013388
H   0.000000 -0.859912  0.280070
2
Frame 391   E = -75.33285167 Ha
O  -0.000000  0.054439 -0.013850
H   0.000000 -0.863993  0.287410
2
Frame 392   E = -75.33255811 Ha
O  -0.000000  0.054649 -0.014301
H   0.000000 -0.867323  0.294573
2
Frame 393   E = -75.33227399 Ha
O  -0.000000  0.054802 -0.014738
H   0.000000 -0.869753  0.301506
2
Frame 394   E = -75.33203379 Ha
O  -0.000000  0.054892 -0.015158
H   0.000000 -0.871169  0.308164
2
Frame 395   E = -75.33186557 Ha
O  -0.000000  0.054911 -0.015558
H   0.000000 -0.871485  0.314512
2
Frame 396   E = -75.33178890 Ha
O  -0.000000  0.054858 -0.015936
H   0.000000 -0.870644  0.320523
2
Frame 397   E = -75.33181357 Ha
O  -0.000000  0.054731 -0.016293
H   0.000000 -0.868622  0.326178
2
Frame 398   E = -75.33193905 Ha
O  -0.000000  0.054529 -0.016626
H   0.000000 -0.865423  0.331470
2
Frame 399   E = -75.33215454 Ha
O  -0.000000  0.054256 -0.016937
H   0.000000 -0.861079  0.336402
2
Frame 400   E = -75.33243977 Ha
O  -0.000000  0.053914 -0.017226
H   0.000000 -0.855654  0.340988
2
Frame 401   E = -75.33276639 Ha
O  -0.000000  0.053510 -0.017495
H   0.000000 -0.849239  0.345252
2
Frame 402   E = -75.33310026 Ha
O  -0.000000  0.053051 -0.017745
H   0.000000 -0.841951  0.349232
2
Frame 403   E = -75.33340444 Ha
O  -0.000000  0.052546 -0.017981
H   0.000000 -0.833939  0.352979
2
Frame 404   E = -75.33364321 Ha
O  -0.000000  0.052006 -0.018207
H   0.000000 -0.825375  0.356555
2
Frame 405   E = -75.33378667 Ha
O  -0.000000  0.051444 -0.018426
H   0.000000 -0.816453  0.360035
2
Frame 406   E = -75.33381558 Ha
O  -0.000000  0.050873 -0.018645
H   0.000000 -0.807387  0.363505
2
Frame 407   E = -75.33372578 Ha
O  -0.000000  0.050307 -0.018869
H   0.000000 -0.798404  0.367063
2
Frame 408   E = -75.33353090 Ha
O  -0.000000  0.049761 -0.019105
H   0.000000 -0.789735  0.370811
2
Frame 409   E = -75.33326258 Ha
O  -0.000000  0.049248 -0.019360
H   0.000000 -0.781607  0.374853
2
Frame 410   E = -75.33296705 Ha
O  -0.000000  0.048783 -0.019639
H   0.000000 -0.774229  0.379292
2
Frame 411   E = -75.33269804 Ha
O  -0.000000  0.048377 -0.019950
H   0.000000 -0.767783  0.384220
2
Frame 412   E = -75.33250702 Ha
O  -0.000000  0.048039 -0.020296
H   0.000000 -0.762411  0.389717
2
Frame 413   E = -75.33243276 Ha
O  -0.000000  0.047774 -0.020682
H   0.000000 -0.758204  0.395838
2
Frame 414   E = -75.33249295 Ha
O  -0.000000  0.047584 -0.021109
H   0.000000 -0.755199  0.402615
2
Frame 415   E = -75.33268025 Ha
O  -0.000000  0.047469 -0.021577
H   0.000000 -0.753373  0.410047
2
Frame 416   E = -75.33296394 Ha
O  -0.000000  0.047424 -0.022085
H   0.000000 -0.752649  0.418105
2
Frame 417   E = -75.33329676 Ha
O  -0.000000  0.047439 -0.022629
H   0.000000 -0.752897  0.426733
2
Frame 418   E = -75.33362476 Ha
O  -0.000000  0.047506 -0.023203
H   0.000000 -0.753950  0.435847
2
Frame 419   E = -75.33389762 Ha
O  -0.000000  0.047610 -0.023801
H   0.000000 -0.755610  0.445343
2
Frame 420   E = -75.33407693 Ha
O  -0.000000  0.047740 -0.024416
H   0.000000 -0.757664  0.455106
2
Frame 421   E = -75.33414111 Ha
O  -0.000000  0.047880 -0.025041
H   0.000000 -0.759892  0.465011
2
Frame 422   E = -75.33408661 Ha
O  -0.000000  0.048018 -0.025666
H   0.000000 -0.762081  0.474930
2
Frame 423   E = -75.33392613 Ha
O  -0.000000  0.048141 -0.026284
H   0.000000 -0.764028  0.484740
2
Frame 424   E = -75.33368483 Ha
O  -0.000000  0.048237 -0.026887
H   0.000000 -0.765551  0.494324
2
Frame 425   E = -75.33339563 Ha
O  -0.000000  0.048296 -0.027470
H   0.000000 -0.766487  0.503573
2
Frame 426   E = -75.33309457 Ha
O  -0.000000  0.048309 -0.028026
H   0.000000 -0.766700  0.512392
2
Frame 427   E = -75.33281667 Ha
O  -0.000000  0.048270 -0.028549
H   0.000000 -0.766080  0.520700
2
Frame 428   E = -75.33259262 Ha
O  -0.000000  0.048173 -0.029036
H   0.000000 -0.764540  0.528428
2
Frame 429   E = -75.33244637 Ha
O  -0.000000  0.048014 -0.029484
H   0.000000 -0.762022  0.535527
2
Frame 430   E = -75.33239342 Ha
O  -0.000000  0.047792 -0.029889
H   0.000000 -0.758490  0.541958
2
Frame 431   E = -75.33243995 Ha
O  -0.000000  0.047505 -0.030251
H   0.000000 -0.753937  0.547702
2
Frame 432   E = -75.33258245 Ha
O  -0.000000  0.047154 -0.030569
H   0.000000 -0.748376  0.552757
2
Frame 433   E = -75.33280794 Ha
O  -0.000000  0.046743 -0.030845
H   0.000000 -0.741846  0.557137
2
Frame 434   E = -75.33309486 Ha
O  -0.000000  0.046275 -0.031081
H   0.000000 -0.734410  0.560873
2
Frame 435   E = -75.33341447 Ha
O  -0.000000  0.045754 -0.031279
H   0.000000 -0.726154  0.564017
2
Frame 436   E = -75.33373311 Ha
O  -0.000000  0.045189 -0.031444
H   0.000000 -0.717183  0.566640
2
Frame 437   E = -75.33401522 Ha
O  -0.000000  0.044587 -0.031582
H   0.000000 -0.707629  0.568829
2
Frame 438   E = -75.33422714 Ha
O  -0.000000  0.043958 -0.031700
H   0.000000 -0.697639  0.570694
2
Frame 439   E = -75.33434160 Ha
O  -0.000000  0.043311 -0.031804
H   0.000000 -0.687379  0.572360
2
Frame 440   E = -75.33434220 Ha
O  -0.000000  0.042659 -0.031906
H   0.000000 -0.677027  0.573968
2
Frame 441   E = -75.33422745 Ha
O  -0.000000  0.042013 -0.032013
H   0.000000 -0.666772  0.575673
2
Frame 442   E = -75.33401306 Ha
O  -0.000000  0.041384 -0.032137
H   0.000000 -0.656801  0.577635
2
Frame 443   E = -75.33373169 Ha
O  -0.000000  0.040786 -0.032287
H   0.000000 -0.647296  0.580015
2
Frame 444   E = -75.33342923 Ha
O  -0.000000  0.040226 -0.032473
H   0.000000 -0.638421  0.582966
2
Frame 445   E = -75.33315769 Ha
O  -0.000000  0.039716 -0.032703
H   0.000000 -0.630318  0.586623
2
Frame 446   E = -75.33296570 Ha
O  -0.000000  0.039260 -0.032985
H   0.000000 -0.623091  0.591096
2
Frame 447   E = -75.33288870 Ha
O  -0.000000  0.038864 -0.033323
H   0.000000 -0.616806  0.596462
2
Frame 448   E = -75.33294129 Ha
O  -0.000000  0.038529 -0.033720
H   0.000000 -0.611483  0.602754
2
Frame 449   E = -75.33311398 Ha
O  -0.000000  0.038253 -0.034174
H   0.000000 -0.607097  0.609964
2
Frame 450   E = -75.33337530 Ha
O  -0.000000  0.038031 -0.034683
H   0.000000 -0.603576  0.618040
2
Frame 451   E = -75.33367867 Ha
O  -0.000000  0.037857 -0.035240
H   0.000000 -0.600815  0.626886
2
Frame 452   E = -75.33397198 Ha
O  -0.000000  0.037722 -0.035838
H   0.000000 -0.598678  0.636377
2
Frame 453   E = -75.33420730 Ha
O  -0.000000  0.037617 -0.036467
H   0.000000 -0.597008  0.646355
2
Frame 454   E = -75.33434870 Ha
O  -0.000000  0.037531 -0.037116
H   0.000000 -0.595639  0.656650
2
Frame 455   E = -75.33437664 Ha
O  -0.000000  0.037453 -0.037773
H   0.000000 -0.594401  0.667081
2
Frame 456   E = -75.33428899 Ha
O  -0.000000  0.037373 -0.038427
H   0.000000 -0.593134  0.677466
2
Frame 457   E = -75.33409917 Ha
O  -0.000000  0.037281 -0.039067
H   0.000000 -0.591684  0.687629
2
Frame 458   E = -75.33383243 Ha
O  -0.000000  0.037170 -0.039684
H   0.000000 -0.589916  0.697407
2
Frame 459   E = -75.33352136 Ha
O  -0.000000  0.037031 -0.040266
H   0.000000 -0.587712  0.706652
2
Frame 460   E = -75.33320140 Ha
O  -0.000000  0.036859 -0.040807
H   0.000000 -0.584974  0.715234
2
Frame 461   E = -75.33290685 Ha
O  -0.000000  0.036648 -0.041299
H   0.000000 -0.581623  0.723044
2
Frame 462   E = -75.33266769 Ha
O  -0.000000  0.036394 -0.041737
H   0.000000 -0.577600  0.729993
2
Frame 463   E = -75.33250719 Ha
O  -0.000000  0.036096 -0.042116
H   0.000000 -0.572868  0.736016
2
Frame 464   E = -75.33244032 Ha
O  -0.000000  0.035752 -0.042435
H   0.000000 -0.567405  0.741069
2
Frame 465   E = -75.33247276 Ha
O  -0.000000  0.035361 -0.042691
H   0.000000 -0.561210  0.745132
2
Frame 466   E = -75.33260057 Ha
O  -0.000000  0.034926 -0.042884
H   0.000000 -0.554300  0.748208
2
Frame 467   E = -75.33281039 Ha
O  -0.000000  0.034448 -0.043018
H   0.000000 -0.546708  0.750323
2
Frame 468   E = -75.33308021 Ha
O  -0.000000  0.033929 -0.043094
H   0.000000 -0.538485  0.751529
2
Frame 469   E = -75.33338088 Ha
O  -0.000000  0.033376 -0.043117
H   0.000000 -0.529696  0.751902
2
Frame 470   E = -75.33367829 Ha
O  -0.000000  0.032791 -0.043095
H   0.000000 -0.520425  0.751544
2
Frame 471   E = -75.33393648 Ha
O  -0.000000  0.032183 -0.043034
H   0.000000 -0.510768  0.750581
2
Frame 472   E = -75.33412155 Ha
O  -0.000000  0.031557 -0.042945
H   0.000000 -0.500836  0.749164
2
Frame 473   E = -75.33420620 Ha
O  -0.000000  0.030922 -0.042838
H   0.000000 -0.490751  0.747467
2
Frame 474   E = -75.33417442 Ha
O  -0.000000  0.030285 -0.042725
H   0.000000 -0.480641  0.745681
2
Frame 475   E = -75.33402553 Ha
O  -0.000000  0.029655 -0.042620
H   0.000000 -0.470641  0.744012
2
Frame 476   E = -75.33377658 Ha
O  -0.000000  0.029040 -0.042536
H   0.000000 -0.460884  0.742674
2
Frame 477   E = -75.33346192 Ha
O  -0.000000  0.028448 -0.042486
H   0.000000 -0.451497  0.741878
2
Frame 478   E = -75.33312927 Ha
O  -0.000000  0.027887 -0.042482
H   0.000000 -0.442593  0.741820
2
Frame 479   E = -75.33283217 Ha
O  -0.000000  0.027363 -0.042536
H   0.000000 -0.434266  0.742673
2
Frame 480   E = -75.33262017 Ha
O  -0.000000  0.026879 -0.042656
H   0.000000 -0.426586  0.744574
2
Frame 481   E = -75.33252863 Ha
O  -0.000000  0.026438 -0.042847
H   0.000000 -0.419591  0.747612
2
Frame 482   E = -75.33257100 Ha
O  -0.000000  0.026041 -0.043112
H   0.000000 -0.413289  0.751824
2
Frame 483   E = -75.33273581 Ha
O  -0.000000  0.025686 -0.043450
H   0.000000 -0.407657  0.757189
2
Frame 484   E = -75.33298920 Ha
O  -0.000000  0.025370 -0.043856
H   0.000000 -0.402641  0.763630
2
Frame 485   E = -75.33328232 Ha
O  -0.000000  0.025088 -0.044322
H   0.000000 -0.398164  0.771022
2
Frame 486   E = -75.33356144 Ha
O  -0.000000  0.024834 -0.044837
H   0.000000 -0.394130  0.779196
2
Frame 487   E = -75.33377798 Ha
O  -0.000000  0.024601 -0.045389
H   0.000000 -0.390432  0.787952
2
Frame 488   E = -75.33389636 Ha
O  -0.000000  0.024382 -0.045963
H   0.000000 -0.386959  0.797072
2
Frame 489   E = -75.33389830 Ha
O  -0.000000  0.024170 -0.046547
H   0.000000 -0.383599  0.806330
2
Frame 490   E = -75.33378356 Ha
O  -0.000000  0.023959 -0.047125
H   0.000000 -0.380248  0.815501
2
Frame 491   E = -75.33356771 Ha
O  -0.000000  0.023742 -0.047684
H   0.000000 -0.376809  0.824372
2
Frame 492   E = -75.33327812 Ha
O  -0.000000  0.023515 -0.048211
H   0.000000 -0.373199  0.832746
2
Frame 493   E = -75.33294920 Ha
O  -0.000000  0.023272 -0.048696
H   0.000000 -0.369345  0.840446
2
Frame 494   E = -75.33261773 Ha
O  -0.000000  0.023010 -0.049130
H   0.000000 -0.365189  0.847323
2
Frame 495   E = -75.33231871 Ha
O  -0.000000  0.022727 -0.049503
H   0.000000 -0.360688  0.853250
2
Frame 496   E = -75.33208212 Ha
O  -0.000000  0.022419 -0.049811
H   0.000000 -0.355810  0.858131
2
Frame 497   E = -75.33193047 Ha
O  -0.000000  0.022087 -0.050048
H   0.000000 -0.350536  0.861895
2
Frame 498   E = -75.33187721 Ha
O  -0.000000  0.021729 -0.050212
H   0.000000 -0.344859  0.864502
2
Frame 499   E = -75.33192578 Ha
O  -0.000000  0.021347 -0.050303
H   0.000000 -0.338786  0.865939
2
Frame 500   E = -75.33206936 Ha
O  -0.000000  0.020940 -0.050321
H   0.000000 -0.332330  0.866223
2
Frame 501   E = -75.33229122 Ha
O  -0.000000  0.020511 -0.050269
H   0.000000 -0.325519  0.865399
2
Frame 502   E = -75.33256577 Ha
O  -0.000000  0.020061 -0.050152
H   0.000000 -0.318389  0.863542
2
Frame 503   E = -75.33286038 Ha
O  -0.000000  0.019595 -0.049976
H   0.000000 -0.310984  0.860757
2
Frame 504   E = -75.33313813 Ha
O  -0.000000  0.019114 -0.049751
H   0.000000 -0.303359  0.857180
2
Frame 505   E = -75.33336143 Ha
O  -0.000000  0.018624 -0.049486
H   0.000000 -0.295577  0.852975
2
Frame 506   E = -75.33349660 Ha
O  -0.000000  0.018128 -0.049193
H   0.000000 -0.287706  0.848334
2
Frame 507   E = -75.33351892 Ha
O  -0.000000  0.017631 -0.048887
H   0.000000 -0.279820  0.843471
2
Frame 508   E = -75.33341763 Ha
O  -0.000000  0.017138 -0.048581
H   0.000000 -0.271997  0.838623
2
Frame 509   E = -75.33319972 Ha
O  -0.000000  0.016654 -0.048292
H   0.000000 -0.264313  0.834035
2
Frame 510   E = -75.33289145 Ha
O  -0.000000  0.016184 -0.048036
H   0.000000 -0.256844  0.829958
2
Frame 511   E = -75.33253637 Ha
O  -0.000000  0.015731 -0.047826
H   0.000000 -0.249657  0.826630
2
Frame 512   E = -75.33218928 Ha
O  -0.000000  0.015299 -0.047677
H   0.000000 -0.242812  0.824267
2
Frame 513   E = -75.33190676 Ha
O  -0.000000  0.014892 -0.047600
H   0.000000 -0.236350  0.823051
2
Frame 514   E = -75.33173590 Ha
O  -0.000000  0.014511 -0.047604
H   0.000000 -0.230302  0.823111
2
Frame 515   E = -75.33170414 Ha
O  -0.000000  0.014157 -0.047693
H   0.000000 -0.224677  0.824518
2
Frame 516   E = -75.33181305 Ha
O  -0.000000  0.013828 -0.047867
H   0.000000 -0.219467  0.827280
2
Frame 517   E = -75.33203790 Ha
O  -0.000000  0.013525 -0.048122
H   0.000000 -0.214647  0.831338
2
Frame 518   E = -75.33233328 Ha
O  -0.000000  0.013243 -0.048452
H   0.000000 -0.210179  0.836570
2
Frame 519   E = -75.33264297 Ha
O  -0.000000  0.012981 -0.048845
H   0.000000 -0.206013  0.842804
2
Frame 520   E = -75.33291124 Ha
O  -0.000000  0.012734 -0.049287
H   0.000000 -0.202091  0.849827
2
Frame 521   E = -75.33309283 Ha
O  -0.000000  0.012498 -0.049765
H   0.000000 -0.198356  0.857398
2
Frame 522   E = -75.33315946 Ha
O  -0.000000  0.012271 -0.050260
H   0.000000 -0.194747  0.865265
2
Frame 523   E = -75.33310233 Ha
O  -0.000000  0.012048 -0.050758
H   0.000000 -0.191209  0.873171
2
Frame 524   E = -75.33293105 Ha
O  -0.000000  0.011826 -0.051244
H   0.000000 -0.187692  0.880872
2
Frame 525   E = -75.33266989 Ha
O  -0.000000  0.011603 -0.051702
H   0.000000 -0.184151  0.888140
2
Frame 526   E = -75.33235286 Ha
O  -0.000000  0.011376 -0.052119
H   0.000000 -0.180549  0.894771
2
Frame 527   E = -75.33201839 Ha
O  -0.000000  0.011144 -0.052486
H   0.000000 -0.176859  0.900588
2
Frame 528   E = -75.33170460 Ha
O  -0.000000  0.010904 -0.052792
H   0.000000 -0.173057  0.905444
2
Frame 529   E = -75.33144534 Ha
O  -0.000000  0.010657 -0.053030
H   0.000000 -0.169129  0.909221
2
Frame 530   E = -75.33126718 Ha
O  -0.000000  0.010401 -0.053195
H   0.000000 -0.165066  0.911837
2
Frame 531   E = -75.33118734 Ha
O  -0.000000  0.010136 -0.053283
H   0.000000 -0.160865  0.913238
2
Frame 532   E = -75.33121249 Ha
O  -0.000000  0.009863 -0.053293
H   0.000000 -0.156531  0.913405
2
Frame 533   E = -75.33133819 Ha
O  -0.000000  0.009582 -0.053227
H   0.000000 -0.152069  0.912350
2
Frame 534   E = -75.33154921 Ha
O  -0.000000  0.009293 -0.053086
H   0.000000 -0.147494  0.910118
2
Frame 535   E = -75.33182041 Ha
O  -0.000000  0.008999 -0.052876
H   0.000000 -0.142821  0.906785
2
Frame 536   E = -75.33211869 Ha
O  -0.000000  0.008700 -0.052604
H   0.000000 -0.138072  0.902463
2
Frame 537   E = -75.33240569 Ha
O  -0.000000  0.008397 -0.052278
H   0.000000 -0.133269  0.897295
2
Frame 538   E = -75.33264170 Ha
O  -0.000000  0.008093 -0.051910
H   0.000000 -0.128441  0.891454
2
Frame 539   E = -75.33279043 Ha
O  -0.000000  0.007789 -0.051513
H   0.000000 -0.123617  0.885147
2
Frame 540   E = -75.33282446 Ha
O  -0.000000  0.007487 -0.051101
H   0.000000 -0.118827  0.878603
2
Frame 541   E = -75.33273068 Ha
O  -0.000000  0.007190 -0.050689
H   0.000000 -0.114104  0.872075
2
Frame 542   E = -75.33251461 Ha
O  -0.000000  0.006898 -0.050296
H   0.000000 -0.109478  0.865827
2
Frame 543   E = -75.33220227 Ha
O  -0.000000  0.006615 -0.049936
H   0.000000 -0.104979  0.860127
2
Frame 544   E = -75.33183846 Ha
O  -0.000000  0.006341 -0.049628
H   0.000000 -0.100632  0.855231
2
Frame 545   E = -75.33148054 Ha
O  -0.000000  0.006078 -0.049385
H   0.000000 -0.096459  0.851374
2
Frame 546   E = -75.33118848 Ha
O  -0.000000  0.005827 -0.049219
H   0.000000 -0.092476  0.848748
2
Frame 547   E = -75.33101277 Ha
O  -0.000000  0.005588 -0.049140
H   0.000000 -0.088689  0.847493
2
Frame 548   E = -75.33098339 Ha
O  -0.000000  0.005362 -0.049153
H   0.000000 -0.085102  0.847688
2
Frame 549   E = -75.33110287 Ha
O  -0.000000  0.005148 -0.049257
H   0.000000 -0.081708  0.849338
2
Frame 550   E = -75.33134570 Ha
O  -0.000000  0.004946 -0.049448
H   0.000000 -0.078496  0.852380
2
Frame 551   E = -75.33166417 Ha
O  -0.000000  0.004754 -0.049720
H   0.000000 -0.075449  0.856686
2
Frame 552   E = -75.33199898 Ha
O  -0.000000  0.004571 -0.050059
H   0.000000 -0.072549  0.862071
2
Frame 553   E = -75.33229133 Ha
O  -0.000000  0.004396 -0.050452
H   0.000000 -0.069774  0.868307
2
Frame 554   E = -75.33249362 Ha
O  -0.000000  0.004228 -0.050882
H   0.000000 -0.067105  0.875141
2
Frame 555   E = -75.33257633 Ha
O  -0.000000  0.004065 -0.051334
H   0.000000 -0.064521  0.882302
2
Frame 556   E = -75.33253067 Ha
O  -0.000000  0.003907 -0.051789
H   0.000000 -0.062005  0.889525
2
Frame 557   E = -75.33236723 Ha
O  -0.000000  0.003752 -0.052231
H   0.000000 -0.059543  0.896550
2
Frame 558   E = -75.33211192 Ha
O  -0.000000  0.003599 -0.052647
H   0.000000 -0.057123  0.903140
2
Frame 559   E = -75.33180064 Ha
O  -0.000000  0.003449 -0.053021
H   0.000000 -0.054738  0.909084
2
Frame 560   E = -75.33147360 Ha
O  -0.000000  0.003300 -0.053343
H   0.000000 -0.052379  0.914198
2
Frame 561   E = -75.33117032 Ha
O  -0.000000  0.003153 -0.053604
H   0.000000 -0.050045  0.918333
2
Frame 562   E = -75.33092543 Ha
O  -0.000000  0.003008 -0.053795
H   0.000000 -0.047733  0.921370
2
Frame 563   E = -75.33076563 Ha
O  -0.000000  0.002863 -0.053912
H   0.000000 -0.045444  0.923227
2
Frame 564   E = -75.33070752 Ha
O  -0.000000  0.002721 -0.053952
H   0.000000 -0.043178  0.923853
2
Frame 565   E = -75.33075644 Ha
O  -0.000000  0.002580 -0.053913
H   0.000000 -0.040940  0.923234
2
Frame 566   E = -75.33090608 Ha
O  -0.000000  0.002440 -0.053796
H   0.000000 -0.038731  0.921388
2
Frame 567   E = -75.33113885 Ha
O  -0.000000  0.002303 -0.053606
H   0.000000 -0.036557  0.918368
2
Frame 568   E = -75.33142712 Ha
O  -0.000000  0.002169 -0.053347
H   0.000000 -0.034422  0.914260
2
Frame 569   E = -75.33173539 Ha
O  -0.000000  0.002037 -0.053028
H   0.000000 -0.032330  0.909185
2
Frame 570   E = -75.33202345 Ha
O  -0.000000  0.001908 -0.052657
H   0.000000 -0.030286  0.903298
2
Frame 571   E = -75.33225068 Ha
O  -0.000000  0.001783 -0.052246
H   0.000000 -0.028296  0.896786
2
Frame 572   E = -75.33238130 Ha
O  -0.000000  0.001661 -0.051810
H   0.000000 -0.026363  0.889866
2
Frame 573   E = -75.33239013 Ha
O  -0.000000  0.001543 -0.051364
H   0.000000 -0.024492  0.882781
2
Frame 574   E = -75.33226805 Ha
O  -0.000000  0.001430 -0.050924
H   0.000000 -0.022688  0.875794
2
Frame 575   E = -75.33202608 Ha
O  -0.000000  0.001320 -0.050507
H   0.000000 -0.020952  0.869178
2
Frame 576   E = -75.33169640 Ha
O  -0.000000  0.001215 -0.050130
H   0.000000 -0.019288  0.863205
2
Frame 577   E = -75.33132937 Ha
O  -0.000000  0.001115 -0.049811
H   0.000000 -0.017697  0.858134
2
Frame 578   E = -75.33098595 Ha
O  -0.000000  0.001019 -0.049562
H   0.000000 -0.016180  0.854192
2
Frame 579   E = -75.33072643 Ha
O  -0.000000  0.000928 -0.049397
H   0.000000 -0.014736  0.851563
2
Frame 580   E = -75.33059787 Ha
O  -0.000000  0.000842 -0.049322
H   0.000000 -0.013363  0.850373
2
Frame 581   E = -75.33062354 Ha
O  -0.000000  0.000760 -0.049341
H   0.000000 -0.012060  0.850680
2
Frame 582   E = -75.33079742 Ha
O  -0.000000  0.000682 -0.049454
H   0.000000 -0.010824  0.852469
2
Frame 583   E = -75.33108564 Ha
O  -0.000000  0.000608 -0.049655
H   0.000000 -0.009653  0.855654
2
Frame 584   E = -75.33143432 Ha
O  -0.000000  0.000538 -0.049934
H   0.000000 -0.008545  0.860086
2
Frame 585   E = -75.33178132 Ha
O  -0.000000  0.000472 -0.050279
H   0.000000 -0.007498  0.865560
2
Frame 586   E = -75.33206872 Ha
O  -0.000000  0.000410 -0.050674
H   0.000000 -0.006512  0.871834
2
Frame 587   E = -75.33225282 Ha
O  -0.000000  0.000352 -0.051103
H   0.000000 -0.005587  0.878643
2
Frame 588   E = -75.33230990 Ha
O  -0.000000  0.000298 -0.051549
H   0.000000 -0.004725  0.885712
2
Frame 589   E = -75.33223750 Ha
O  -0.000000  0.000247 -0.051993
H   0.000000 -0.003928  0.892770
2
Frame 590   E = -75.33205199 Ha
O  -0.000000  0.000201 -0.052421
H   0.000000 -0.003197  0.899562
2
Frame 591   E = -75.33178378 Ha
O  -0.000000  0.000160 -0.052818
H   0.000000 -0.002536  0.905854
2
Frame 592   E = -75.33147158 Ha
O  -0.000000  0.000123 -0.053170
H   0.000000 -0.001949  0.911440
2
Frame 593   E = -75.33115667 Ha
O  -0.000000  0.000091 -0.053466
H   0.000000 -0.001438  0.916146
2
Frame 594   E = -75.33087802 Ha
O  -0.000000  0.000063 -0.053698
H   0.000000 -0.001005  0.919831
2
Frame 595   E = -75.33066839 Ha
O  -0.000000  0.000041 -0.053859
H   0.000000 -0.000654  0.922388
2
Frame 596   E = -75.33055150 Ha
O  -0.000000  0.000024 -0.053945
H   0.000000 -0.000386  0.923744
2
Frame 597   E = -75.33054024 Ha
O  -0.000000  0.000013 -0.053952
H   0.000000 -0.000201  0.923861
2
Frame 598   E = -75.33063578 Ha
O  -0.000000  0.000006 -0.053881
H   0.000000 -0.000101  0.922737
2
Frame 599   E = -75.33082747 Ha
O  -0.000000  0.000005 -0.053734
H   0.000000 -0.000085  0.920403
2
Frame 600   E = -75.33109356 Ha
O  -0.000000  0.000010 -0.053515
H   0.000000 -0.000151  0.916923
2
Frame 601   E = -75.33140286 Ha
O  -0.000000  0.000019 -0.053230
H   0.000000 -0.000298  0.912399
2
Frame 602   E = -75.33171732 Ha
O  -0.000000  0.000033 -0.052888
H   0.000000 -0.000523  0.906964
2
Frame 603   E = -75.33199570 Ha
O  -0.000000  0.000052 -0.052498
H   0.000000 -0.000824  0.900788
2
Frame 604   E = -75.33219831 Ha
O  -0.000000  0.000075 -0.052075
H   0.000000 -0.001196  0.894070
2
Frame 605   E = -75.33229265 Ha
O  -0.000000  0.000103 -0.051632
H   0.000000 -0.001637  0.887039
2
Frame 606   E = -75.33225914 Ha
O  -0.000000  0.000135 -0.051185
H   0.000000 -0.002143  0.879947
2
Frame 607   E = -75.33209632 Ha
O  -0.000000  0.000171 -0.050751
H   0.000000 -0.002711  0.873062
2
Frame 608   E = -75.33182376 Ha
O  -0.000000  0.000210 -0.050348
H   0.000000 -0.003338  0.866661
2
Frame 609   E = -75.33148168 Ha
O  -0.000000  0.000253 -0.049992
H   0.000000 -0.004023  0.861011
2
Frame 610   E = -75.33112604 Ha
O  -0.000000  0.000300 -0.049699
H   0.000000 -0.004764  0.856361
2
Frame 611   E = -75.33081919 Ha
O  -0.000000  0.000350 -0.049483
H   0.000000 -0.005560  0.852924
2
Frame 612   E = -75.33061774 Ha
O  -0.000000  0.000404 -0.049353
H   0.000000 -0.006413  0.850861
2
Frame 613   E = -75.33056027 Ha
O  -0.000000  0.000461 -0.049315
H   0.000000 -0.007323  0.850272
2
Frame 614   E = -75.33065853 Ha
O  -0.000000  0.000522 -0.049373
H   0.000000 -0.008292  0.851185
2
Frame 615   E = -75.33089462 Ha
O  -0.000000  0.000587 -0.049522
H   0.000000 -0.009322  0.853556
2
Frame 616   E = -75.33122526 Ha
O  -0.000000  0.000656 -0.049756
H   0.000000 -0.010414  0.857271
2
Frame 617   E = -75.33159159 Ha
O  -0.000000  0.000729 -0.050064
H   0.000000 -0.011570  0.862158
2
Frame 618   E = -75.33193169 Ha
O  -0.000000  0.000806 -0.050432
H   0.000000 -0.012790  0.867994
2
Frame 619   E = -75.33219233 Ha
O  -0.000000  0.000887 -0.050844
H   0.000000 -0.014077  0.874526
2
Frame 620   E = -75.33233740 Ha
O  -0.000000  0.000972 -0.051282
H   0.000000 -0.015429  0.881483
2
Frame 621   E = -75.33235182 Ha
O  -0.000000  0.001061 -0.051730
H   0.000000 -0.016846  0.888591
2
Frame 622   E = -75.33224115 Ha
O  -0.000000  0.001155 -0.052170
H   0.000000 -0.018327  0.895582
2
Frame 623   E = -75.33202799 Ha
O  -0.000000  0.001252 -0.052588
H   0.000000 -0.019870  0.902211
2
Frame 624   E = -75.33174667 Ha
O  -0.000000  0.001353 -0.052969
H   0.000000 -0.021474  0.908254
2
Frame 625   E = -75.33143746 Ha
O  -0.000000  0.001458 -0.053301
H   0.000000 -0.023136  0.913518
2
Frame 626   E = -75.33114109 Ha
O  -0.000000  0.001566 -0.053573
H   0.000000 -0.024854  0.917841
2
Frame 627   E = -75.33089434 Ha
O  -0.000000  0.001678 -0.053778
H   0.000000 -0.026624  0.921097
2
Frame 628   E = -75.33072655 Ha
O  -0.000000  0.001792 -0.053910
H   0.000000 -0.028444  0.923191
2
Frame 629   E = -75.33065731 Ha
O  -0.000000  0.001910 -0.053965
H   0.000000 -0.030311  0.924066
2
Frame 630   E = -75.33069504 Ha
O  -0.000000  0.002030 -0.053942
H   0.000000 -0.032221  0.923695
2
Frame 631   E = -75.33083645 Ha
O  -0.000000  0.002153 -0.053841
H   0.000000 -0.034174  0.922090
2
Frame 632   E = -75.33106679 Ha
O  -0.000000  0.002279 -0.053664
H   0.000000 -0.036166  0.919293
2
Frame 633   E = -75.33136090 Ha
O  -0.000000  0.002407 -0.053418
H   0.000000 -0.038197  0.915382
2
Frame 634   E = -75.33168519 Ha
O  -0.000000  0.002537 -0.053108
H   0.000000 -0.040266  0.910468
2
Frame 635   E = -75.33200051 Ha
O  -0.000000  0.002670 -0.052745
H   0.000000 -0.042376  0.904699
2
Frame 636   E = -75.33226623 Ha
O  -0.000000  0.002806 -0.052339
H   0.000000 -0.044529  0.898250
2
Frame 637   E = -75.33244516 Ha
O  -0.000000  0.002944 -0.051903
H   0.000000 -0.046730  0.891330
2
Frame 638   E = -75.33250916 Ha
O  -0.000000  0.003087 -0.051452
H   0.000000 -0.048987  0.884175
2
Frame 639   E = -75.33244469 Ha
O  -0.000000  0.003233 -0.051002
H   0.000000 -0.051309  0.877039
2
Frame 640   E = -75.33225719 Ha
O  -0.000000  0.003384 -0.050571
H   0.000000 -0.053709  0.870192
2
Frame 641   E = -75.33197300 Ha
O  -0.000000  0.003541 -0.050174
H   0.000000 -0.056202  0.863903
2
Frame 642   E = -75.33163742 Ha
O  -0.000000  0.003705 -0.049830
H   0.000000 -0.058801  0.858433
2
Frame 643   E = -75.33130844 Ha
O  -0.000000  0.003877 -0.049551
H   0.000000 -0.061525  0.854014
2
Frame 644   E = -75.33104651 Ha
O  -0.000000  0.004057 -0.049351
H   0.000000 -0.064387  0.850841
2
Frame 645   E = -75.33090233 Ha
O  -0.000000  0.004247 -0.049239
H   0.000000 -0.067402  0.849054
2
Frame 646   E = -75.33090573 Ha
O  -0.000000  0.004447 -0.049218
H   0.000000 -0.070580  0.848727
2
Frame 647   E = -75.33105876 Ha
O  -0.000000  0.004658 -0.049290
H   0.000000 -0.073927  0.849864
2
Frame 648   E = -75.33133530 Ha
O  -0.000000  0.004880 -0.049450
H   0.000000 -0.077444  0.852400
2
Frame 649   E = -75.33168708 Ha
O  -0.000000  0.005112 -0.049689
H   0.000000 -0.081124  0.856202
2
Frame 650   E = -75.33205440 Ha
O  -0.000000  0.005353 -0.049997
H   0.000000 -0.084959  0.861084
2
Frame 651   E = -75.33237833 Ha
O  -0.000000  0.005603 -0.050358
H   0.000000 -0.088931  0.866816
2
Frame 652   E = -75.33261135 Ha
O  -0.000000  0.005861 -0.050757
H   0.000000 -0.093021  0.873143
2
Frame 653   E = -75.33272414 Ha
O  -0.000000  0.006125 -0.051176
H   0.000000 -0.097206  0.879797
2
Frame 654   E = -75.33270808 Ha
O  -0.000000  0.006393 -0.051599
H   0.000000 -0.101462  0.886508
2
Frame 655   E = -75.33257382 Ha
O  -0.000000  0.006664 -0.052009
H   0.000000 -0.105762  0.893022
2
Frame 656   E = -75.33234714 Ha
O  -0.000000  0.006936 -0.052392
H   0.000000 -0.110082  0.899102
2
Frame 657   E = -75.33206363 Ha
O  -0.000000  0.007208 -0.052735
H   0.000000 -0.114397  0.904538
2
Frame 658   E = -75.33176311 Ha
O  -0.000000  0.007478 -0.053025
H   0.000000 -0.118684  0.909149
2
Frame 659   E = -75.33148464 Ha
O  -0.000000  0.007745 -0.053254
H   0.000000 -0.122924  0.912787
2
Frame 660   E = -75.33126249 Ha
O  -0.000000  0.008008 -0.053415
H   0.000000 -0.127098  0.915335
2
Frame 661   E = -75.33112318 Ha
O  -0.000000  0.008266 -0.053502
H   0.000000 -0.131193  0.916710
2
Frame 662   E = -75.33108344 Ha
O  -0.000000  0.008519 -0.053511
H   0.000000 -0.135196  0.916864
2
Frame 663   E = -75.33114918 Ha
O  -0.000000  0.008765 -0.053443
H   0.000000 -0.139100  0.915779
2
Frame 664   E = -75.33131506 Ha
O  -0.000000  0.009004 -0.053298
H   0.000000 -0.142902  0.913471
2
Frame 665   E = -75.33156497 Ha
O  -0.000000  0.009237 -0.053078
H   0.000000 -0.146603  0.909990
2
Frame 666   E = -75.33187315 Ha
O  -0.000000  0.009464 -0.052790
H   0.000000 -0.150208  0.905415
2
Frame 667   E = -75.33220619 Ha
O  -0.000000  0.009686 -0.052440
H   0.000000 -0.153730  0.899860
2
Frame 668   E = -75.33252595 Ha
O  -0.000000  0.009904 -0.052037
H   0.000000 -0.157185  0.893471
2
Frame 669   E = -75.33279346 Ha
O  -0.000000  0.010119 -0.051593
H   0.000000 -0.160598  0.886423
2
Frame 670   E = -75.33297370 Ha
O  -0.000000  0.010333 -0.051121
H   0.000000 -0.163998  0.878920
2
Frame 671   E = -75.33304089 Ha
O  -0.000000  0.010549 -0.050633
H   0.000000 -0.167422  0.871190
2
Frame 672   E = -75.33298362 Ha
O  -0.000000  0.010769 -0.050148
H   0.000000 -0.170913  0.863479
2
Frame 673   E = -75.33280878 Ha
O  -0.000000  0.010996 -0.049679
H   0.000000 -0.174518  0.856045
2
Frame 674   E = -75.33254305 Ha
O  -0.000000  0.011234 -0.049245
H   0.000000 -0.178289  0.849147
2
Frame 675   E = -75.33223073 Ha
O  -0.000000  0.011485 -0.048859
H   0.000000 -0.182277  0.843028
2
Frame 676   E = -75.33192750 Ha
O  -0.000000  0.011753 -0.048536
H   0.000000 -0.186532  0.837909
2
Frame 677   E = -75.33169065 Ha
O  -0.000000  0.012041 -0.048288
H   0.000000 -0.191099  0.833970
2
Frame 678   E = -75.33156757 Ha
O  -0.000000  0.012351 -0.048123
H   0.000000 -0.196013  0.831340
2
Frame 679   E = -75.33158548 Ha
O  -0.000000  0.012684 -0.048043
H   0.000000 -0.201298  0.830084
2
Frame 680   E = -75.33174530 Ha
O  -0.000000  0.013040 -0.048051
H   0.000000 -0.206962  0.830202
2
Frame 681   E = -75.33202141 Ha
O  -0.000000  0.013421 -0.048141
H   0.000000 -0.213000  0.831628
2
Frame 682   E = -75.33236756 Ha
O  -0.000000  0.013823 -0.048305
H   0.000000 -0.219388  0.834235
2
Frame 683   E = -75.33272694 Ha
O  -0.000000  0.014246 -0.048532
H   0.000000 -0.226089  0.837843
2
Frame 684   E = -75.33304358 Ha
O  -0.000000  0.014685 -0.048809
H   0.000000 -0.233054  0.842236
2
Frame 685   E = -75.33327227 Ha
O  -0.000000  0.015136 -0.049120
H   0.000000 -0.240223  0.847171
2
Frame 686   E = -75.33338493 Ha
O  -0.000000  0.015597 -0.049449
H   0.000000 -0.247531  0.852397
2
Frame 687   E = -75.33337298 Ha
O  -0.000000  0.016062 -0.049781
H   0.000000 -0.254909  0.857660
2
Frame 688   E = -75.33324605 Ha
O  -0.000000  0.016527 -0.050100
H   0.000000 -0.262290  0.862721
2
Frame 689   E = -75.33302822 Ha
O  -0.000000  0.016988 -0.050392
H   0.000000 -0.269606  0.867358
2
Frame 690   E = -75.33275303 Ha
O  -0.000000  0.017441 -0.050645
H   0.000000 -0.276796  0.871374
2
Frame 691   E = -75.33245830 Ha
O  -0.000000  0.017882 -0.050848
H   0.000000 -0.283804  0.874599
2
Frame 692   E = -75.33218150 Ha
O  -0.000000  0.018309 -0.050993
H   0.000000 -0.290581  0.876892
2
Frame 693   E = -75.33195590 Ha
O  -0.000000  0.018719 -0.051072
H   0.000000 -0.297085  0.878145
2
Frame 694   E = -75.33180781 Ha
O  -0.000000  0.019110 -0.051080
H   0.000000 -0.303283  0.878279
2
Frame 695   E = -75.33175463 Ha
O  -0.000000  0.019479 -0.051015
H   0.000000 -0.309151  0.877244
2
Frame 696   E = -75.33180374 Ha
O  -0.000000  0.019827 -0.050875
H   0.000000 -0.314674  0.875022
2
Frame 697   E = -75.33195213 Ha
O  -0.000000  0.020153 -0.050661
H   0.000000 -0.319846  0.871623
2
Frame 698   E = -75.33218662 Ha
O  -0.000000  0.020457 -0.050375
H   0.000000 -0.324673  0.867089
2
Frame 699   E = -75.33248481 Ha
O  -0.000000  0.020741 -0.050022
H   0.000000 -0.329170  0.861489
2
Frame 700   E = -75.33281664 Ha
O  -0.000000  0.021005 -0.049608
H   0.000000 -0.333364  0.854920
2
Frame 701   E = -75.33314689 Ha
O  -0.000000  0.021253 -0.049141
H   0.000000 -0.337295  0.847510
2
Frame 702   E = -75.33343844 Ha
O  -0.000000  0.021487 -0.048631
H   0.000000 -0.341015  0.839411
2
Frame 703   E = -75.33365647 Ha
O  -0.000000  0.021712 -0.048089
H   0.000000 -0.344588  0.830804
2
Frame 704   E = -75.33377316 Ha
O  -0.000000  0.021933 -0.047527
H   0.000000 -0.348089  0.821890
2
Frame 705   E = -75.33377256 Ha
O  -0.000000  0.022154 -0.046960
H   0.000000 -0.351606  0.812887
2
Frame 706   E = -75.33365469 Ha
O  -0.000000  0.022383 -0.046401
H   0.000000 -0.355235  0.804025
2
Frame 707   E = -75.33343778 Ha
O  -0.000000  0.022625 -0.045867
H   0.000000 -0.359077  0.795537
2
Frame 708   E = -75.33315760 Ha
O  -0.000000  0.022887 -0.045370
H   0.000000 -0.363233  0.787647
2
Frame 709   E = -75.33286313 Ha
O  -0.000000  0.023175 -0.044923
H   0.000000 -0.367804  0.780562
2
Frame 710   E = -75.33260869 Ha
O  -0.000000  0.023495 -0.044538
H   0.000000 -0.372876  0.774454
2
Frame 711   E = -75.33244366 Ha
O  -0.000000  0.023850 -0.044223
H   0.000000 -0.378521  0.769456
2
Frame 712   E = -75.33240233 Ha
O  -0.000000  0.024245 -0.043983
H   0.000000 -0.384790  0.765646
2
Frame 713   E = -75.33249638 Ha
O  -0.000000  0.024681 -0.043820
H   0.000000 -0.391705  0.763048
2
Frame 714   E = -75.33271224 Ha
O  -0.000000  0.025157 -0.043730
H   0.000000 -0.399260  0.761623
2
Frame 715   E = -75.33301419 Ha
O  -0.000000  0.025671 -0.043708
H   0.000000 -0.407419  0.761281
2
Frame 716   E = -75.33335218 Ha
O  -0.000000  0.026219 -0.043746
H   0.000000 -0.416120  0.761880
2
Frame 717   E = -75.33367212 Ha
O  -0.000000  0.026796 -0.043832
H   0.000000 -0.425276  0.763243
2
Frame 718   E = -75.33392587 Ha
O  -0.000000  0.027395 -0.043953
H   0.000000 -0.434782  0.765166
2
Frame 719   E = -75.33407883 Ha
O  -0.000000  0.028009 -0.044096
H   0.000000 -0.444521  0.767431
2
Frame 720   E = -75.33411391 Ha
O  -0.000000  0.028629 -0.044246
H   0.000000 -0.454370  0.769818
2
Frame 721   E = -75.33403192 Ha
O  -0.000000  0.029249 -0.044391
H   0.000000 -0.464206  0.772113
2
Frame 722   E = -75.33384912 Ha
O  -0.000000  0.029860 -0.044517
H   0.000000 -0.473906  0.774116
2
Frame 723   E = -75.33359312 Ha
O  -0.000000  0.030456 -0.044613
H   0.000000 -0.483359  0.775648
2
Frame 724   E = -75.33329814 Ha
O  -0.000000  0.031030 -0.044670
H   0.000000 -0.492462  0.776552
2
Frame 725   E = -75.33300038 Ha
O  -0.000000  0.031575 -0.044680
H   0.000000 -0.501123  0.776696
2
Frame 726   E = -75.33273410 Ha
O  -0.000000  0.032088 -0.044634
H   0.000000 -0.509267  0.775974
2
Frame 727   E = -75.33252853 Ha
O  -0.000000  0.032565 -0.044529
H   0.000000 -0.516830  0.774308
2
Frame 728   E = -75.33240562 Ha
O  -0.000000  0.033002 -0.044361
H   0.000000 -0.523766  0.771642
2
Frame 729   E = -75.33237858 Ha
O  -0.000000  0.033398 -0.044128
H   0.000000 -0.530043  0.767950
2
Frame 730   E = -75.33245113 Ha
O  -0.000000  0.033750 -0.043831
H   0.000000 -0.535645  0.763227
2
Frame 731   E = -75.33261727 Ha
O  -0.000000  0.034061 -0.043470
H   0.000000 -0.540573  0.757494
2
Frame 732   E = -75.33286171 Ha
O  -0.000000  0.034330 -0.043048
H   0.000000 -0.544846  0.750798
2
Frame 733   E = -75.33316082 Ha
O  -0.000000  0.034560 -0.042569
H   0.000000 -0.548500  0.743206
2
Frame 734   E = -75.33348433 Ha
O  -0.000000  0.034755 -0.042040
H   0.000000 -0.551590  0.734810
2
Frame 735   E = -75.33379773 Ha
O  -0.000000  0.034919 -0.041468
H   0.000000 -0.554190  0.725724
2
Frame 736   E = -75.33406553 Ha
O  -0.000000  0.035058 -0.040860
H   0.000000 -0.556391  0.716085
2
Frame 737   E = -75.33425528 Ha
O  -0.000000  0.035178 -0.040228
H   0.000000 -0.558305  0.706046
2
Frame 738   E = -75.33434205 Ha
O  -0.000000  0.035289 -0.039581
H   0.000000 -0.560061  0.695781
2
Frame 739   E = -75.33431301 Ha
O  -0.000000  0.035398 -0.038931
H   0.000000 -0.561800  0.685471
2
Frame 740   E = -75.33417099 Ha
O  -0.000000  0.035517 -0.038291
H   0.000000 -0.563676  0.675306
2
Frame 741   E = -75.33393630 Ha
O  -0.000000  0.035654 -0.037672
H   0.000000 -0.565848  0.665478
2
Frame 742   E = -75.33364555 Ha
O  -0.000000  0.035819 -0.037085
H   0.000000 -0.568474  0.656164
2
Frame 743   E = -75.33334706 Ha
O  -0.000000  0.036022 -0.036541
H   0.000000 -0.571701  0.647528
2
Frame 744   E = -75.33309295 Ha
O  -0.000000  0.036272 -0.036048
H   0.000000 -0.575657  0.639702
2
Frame 745   E = -75.33292933 Ha
O  -0.000000  0.036573 -0.035612
H   0.000000 -0.580443  0.632784
2
Frame 746   E = -75.33288677 Ha
O  -0.000000  0.036931 -0.035237
H   0.000000 -0.586123  0.626829
2
Frame 747   E = -75.33297370 Ha
O  -0.000000  0.037347 -0.034922
H   0.000000 -0.592720  0.621844
2
Frame 748   E = -75.33317445 Ha
O  -0.000000  0.037819 -0.034667
H   0.000000 -0.600215  0.617792
2
Frame 749   E = -75.33345278 Ha
O  -0.000000  0.038344 -0.034465
H   0.000000 -0.608545  0.614591
2
Frame 750   E = -75.33375969 Ha
O  -0.000000  0.038915 -0.034310
H   0.000000 -0.617608  0.612126
2
Frame 751   E = -75.33404323 Ha
O  -0.000000  0.039524 -0.034192
H   0.000000 -0.627269  0.610251
2
Frame 752   E = -75.33425799 Ha
O  -0.000000  0.040160 -0.034101
H   0.000000 -0.637371  0.608805
2
Frame 753   E = -75.33437202 Ha
O  -0.000000  0.040814 -0.034026
H   0.000000 -0.647741  0.607618
2
Frame 754   E = -75.33437037 Ha
O  -0.000000  0.041473 -0.033957
H   0.000000 -0.658199  0.606520
2
Frame 755   E = -75.33425523 Ha
O  -0.000000  0.042126 -0.033883
H   0.000000 -0.668567  0.605348
2
Frame 756   E = -75.33404351 Ha
O  -0.000000  0.042763 -0.033795
H   0.000000 -0.678673  0.603952
2
Frame 757   E = -75.33376282 Ha
O  -0.000000  0.043373 -0.033685
H   0.000000 -0.688360  0.602198
2
Frame 758   E = -75.33344689 Ha
O  -0.000000  0.043948 -0.033544
H   0.000000 -0.697485  0.599973
2
Frame 759   E = -75.33313119 Ha
O  -0.000000  0.044480 -0.033368
H   0.000000 -0.705926  0.597180
2
Frame 760   E = -75.33284918 Ha
O  -0.000000  0.044962 -0.033152
H   0.000000 -0.713579  0.593746
2
Frame 761   E = -75.33262926 Ha
O  -0.000000  0.045389 -0.032892
H   0.000000 -0.720362  0.589615
2
Frame 762   E = -75.33249267 Ha
O  -0.000000  0.045758 -0.032585
H   0.000000 -0.726216  0.584754
2
Frame 763   E = -75.33245203 Ha
O  -0.000000  0.046066 -0.032232
H   0.000000 -0.731104  0.579147
2
Frame 764   E = -75.33251055 Ha
O  -0.000000  0.046312 -0.031832
H   0.000000 -0.735010  0.572796
2
Frame 765   E = -75.33266182 Ha
O  -0.000000  0.046497 -0.031386
H   0.000000 -0.737945  0.565723
2
Frame 766   E = -75.33289017 Ha
O  -0.000000  0.046623 -0.030897
H   0.000000 -0.739939  0.557965
2
Frame 767   E = -75.33317164 Ha
O  -0.000000  0.046693 -0.030369
H   0.000000 -0.741051  0.549579
2
Frame 768   E = -75.33347558 Ha
O  -0.000000  0.046712 -0.029806
H   0.000000 -0.741361  0.540636
2
Frame 769   E = -75.33376714 Ha
O  -0.000000  0.046688 -0.029212
H   0.000000 -0.740977  0.531223
2
Frame 770   E = -75.33401055 Ha
O  -0.000000  0.046629 -0.028596
H   0.000000 -0.740029  0.521443
2
Frame 771   E = -75.33417320 Ha
O  -0.000000  0.046543 -0.027964
H   0.000000 -0.738674  0.511411
2
Frame 772   E = -75.33423025 Ha
O  -0.000000  0.046443 -0.027324
H   0.000000 -0.737087  0.501253
2
Frame 773   E = -75.33416929 Ha
O  -0.000000  0.046341 -0.026685
H   0.000000 -0.735463  0.491103
2
Frame 774   E = -75.33399398 Ha
O  -0.000000  0.046249 -0.026054
H   0.000000 -0.734008  0.481097
2
Frame 775   E = -75.33372590 Ha
O  -0.000000  0.046182 -0.025441
H   0.000000 -0.732935  0.471369
2
Frame 776   E = -75.33340320 Ha
O  -0.000000  0.046151 -0.024854
H   0.000000 -0.732449  0.462047
2
Frame 777   E = -75.33307579 Ha
O  -0.000000  0.046169 -0.024299
H   0.000000 -0.732741  0.453241
2
Frame 778   E = -75.33279708 Ha
O  -0.000000  0.046247 -0.023782
H   0.000000 -0.733975  0.445042
2
Frame 779   E = -75.33261383 Ha
O  -0.000000  0.046392 -0.023308
H   0.000000 -0.736274  0.437513
2
Frame 780   E = -75.33255637 Ha
O  -0.000000  0.046609 -0.022878
H   0.000000 -0.739716  0.430686
2
Frame 781   E = -75.33263194 Ha
O  -0.000000  0.046899 -0.022492
H   0.000000 -0.744322  0.424560
2
Frame 782   E = -75.33282302 Ha
O  -0.000000  0.047260 -0.022148
H   0.000000 -0.750058  0.419105
2
Frame 783   E = -75.33309125 Ha
O  -0.000000  0.047687 -0.021843
H   0.000000 -0.756835  0.414258
2
Frame 784   E = -75.33338567 Ha
O  -0.000000  0.048171 -0.021570
H   0.000000 -0.764516  0.409937
2
Frame 785   E = -75.33365309 Ha
O  -0.000000  0.048701 -0.021325
H   0.000000 -0.772926  0.406039
2
Frame 786   E = -75.33384768 Ha
O  -0.000000  0.049264 -0.021099
H   0.000000 -0.781861  0.402455
2
Frame 787   E = -75.33393799 Ha
O  -0.000000  0.049847 -0.020886
H   0.000000 -0.791102  0.399069
2
Frame 788   E = -75.33391033 Ha
O  -0.000000  0.050434 -0.020678
H   0.000000 -0.800422  0.395770
2
Frame 789   E = -75.33376868 Ha
O  -0.000000  0.051012 -0.020469
H   0.000000 -0.809602  0.392451
2
Frame 790   E = -75.33353191 Ha
O  -0.000000  0.051569 -0.020252
H   0.000000 -0.818433  0.389017
2
Frame 791   E = -75.33322952 Ha
O  -0.000000  0.052091 -0.020023
H   0.000000 -0.826723  0.385386
2
Frame 792   E = -75.33289685 Ha
O  -0.000000  0.052569 -0.019778
H   0.000000 -0.834303  0.381486
2
Frame 793   E = -75.33257050 Ha
O  -0.000000  0.052993 -0.019512
H   0.000000 -0.841031  0.377263
2
Frame 794   E = -75.33228445 Ha
O  -0.000000  0.053355 -0.019222
H   0.000000 -0.846787  0.372673
2
Frame 795   E = -75.33206697 Ha
O  -0.000000  0.053651 -0.018908
H   0.000000 -0.851481  0.367688
2
Frame 796   E = -75.33193846 Ha
O  -0.000000  0.053876 -0.018568
H   0.000000 -0.855052  0.362291
2
Frame 797   E = -75.33190996 Ha
O  -0.000000  0.054028 -0.018202
H   0.000000 -0.857465  0.356480
2
Frame 798   E = -75.33198245 Ha
O  -0.000000  0.054107 -0.017810
H   0.000000 -0.858714  0.350260
2
Frame 799   E = -75.33214670 Ha
O  -0.000000  0.054114 -0.017394
H   0.000000 -0.858823  0.343651
2
Frame 800   E = -75.33238378 Ha
O  -0.000000  0.054052 -0.016955
H   0.000000 -0.857843  0.336682
2
Frame 801   E = -75.33266630 Ha
O  -0.000000  0.053927 -0.016495
H   0.000000 -0.855856  0.329392
2
Frame 802   E = -75.33296040 Ha
O  -0.000000  0.053745 -0.016019
H   0.000000 -0.852974  0.321830
2
Frame 803   E = -75.33322874 Ha
O  -0.000000  0.053516 -0.015529
H   0.000000 -0.849338  0.314053
2
Frame 804   E = -75.33343430 Ha
O  -0.000000  0.053250 -0.015029
H   0.000000 -0.845118  0.306128
2
Frame 805   E = -75.33354510 Ha
O  -0.000000  0.052960 -0.014525
H   0.000000 -0.840510  0.298126
2
Frame 806   E = -75.33353934 Ha
O  -0.000000  0.052659 -0.014021
H   0.000000 -0.835735  0.290125
2
Frame 807   E = -75.33341011 Ha
O  -0.000000  0.052362 -0.013522
H   0.000000 -0.831029  0.282204
2
Frame 808   E = -75.33316886 Ha
O  -0.000000  0.052086 -0.013033
H   0.000000 -0.826639  0.274442
2
Frame 809   E = -75.33284609 Ha
O  -0.000000  0.051845 -0.012559
H   0.000000 -0.822813  0.266916
2
Frame 810   E = -75.33248851 Ha
O  -0.000000  0.051654 -0.012104
H   0.000000 -0.819784  0.259694
2
Frame 811   E = -75.33215213 Ha
O  -0.000000  0.051526 -0.011671
H   0.000000 -0.817761  0.252831
2
Frame 812   E = -75.33189217 Ha
O  -0.000000  0.051473 -0.011264
H   0.000000 -0.816914  0.246372
2
Frame 813   E = -75.33175190 Ha
O  -0.000000  0.051501 -0.010884
H   0.000000 -0.817358  0.240340
2
Frame 814   E = -75.33175311 Ha
O  -0.000000  0.051614 -0.010531
H   0.000000 -0.819151  0.234741
2
Frame 815   E = -75.33189112 Ha
O  -0.000000  0.051811 -0.010205
H   0.000000 -0.822285  0.229565
2
Frame 816   E = -75.33213588 Ha
O  -0.000000  0.052089 -0.009904
H   0.000000 -0.826687  0.224781
2
Frame 817   E = -75.33243866 Ha
O  -0.000000  0.052438 -0.009624
H   0.000000 -0.832222  0.220347
2
Frame 818   E = -75.33274251 Ha
O  -0.000000  0.052846 -0.009364
H   0.000000 -0.838710  0.216209
2
Frame 819   E = -75.33299349 Ha
O  -0.000000  0.053301 -0.009118
H   0.000000 -0.845930  0.212309
2
Frame 820   E = -75.33314986 Ha
O  -0.000000  0.053787 -0.008883
H   0.000000 -0.853638  0.208585
2
Frame 821   E = -75.33318776 Ha
O  -0.000000  0.054287 -0.008656
H   0.000000 -0.861582  0.204975
2
Frame 822   E = -75.33310280 Ha
O  -0.000000  0.054787 -0.008432
H   0.000000 -0.869507  0.201423
2
Frame 823   E = -75.33290826 Ha
O  -0.000000  0.055270 -0.008209
H   0.000000 -0.877174  0.197879
2
Frame 824   E = -75.33263101 Ha
O  -0.000000  0.055723 -0.007983
H   0.000000 -0.884359  0.194298
2
Frame 825   E = -75.33230641 Ha
O  -0.000000  0.056133 -0.007753
H   0.000000 -0.890866  0.190645
2
Frame 826   E = -75.33197314 Ha
O  -0.000000  0.056489 -0.007516
H   0.000000 -0.896523  0.186889
2
Frame 827   E = -75.33166859 Ha
O  -0.000000  0.056783 -0.007272
H   0.000000 -0.901191  0.183010
2
Frame 828   E = -75.33142515 Ha
O  -0.000000  0.057008 -0.007019
H   0.000000 -0.904761  0.178994
2
Frame 829   E = -75.33126739 Ha
O  -0.000000  0.057159 -0.006757
H   0.000000 -0.907156  0.174833
2
Frame 830   E = -75.33121026 Ha
O  -0.000000  0.057233 -0.006485
H   0.000000 -0.908331  0.170525
2
Frame 831   E = -75.33125798 Ha
O  -0.000000  0.057229 -0.006205
H   0.000000 -0.908272  0.166075
2
Frame 832   E = -75.33140372 Ha
O  -0.000000  0.057149 -0.005916
H   0.000000 -0.907000  0.161492
2
Frame 833   E = -75.33162998 Ha
O  -0.000000  0.056996 -0.005620
H   0.000000 -0.904565  0.156790
2
Frame 834   E = -75.33190977 Ha
O  -0.000000  0.056775 -0.005317
H   0.000000 -0.901053  0.151987
2
Frame 835   E = -75.33220863 Ha
O  -0.000000  0.056493 -0.005010
H   0.000000 -0.896580  0.147106
2
Frame 836   E = -75.33248762 Ha
O  -0.000000  0.056160 -0.004699
H   0.000000 -0.891296  0.142171
2
Frame 837   E = -75.33270740 Ha
O  -0.000000  0.055787 -0.004386
H   0.000000 -0.885381  0.137213
2
Frame 838   E = -75.33283318 Ha
O  -0.000000  0.055388 -0.004074
H   0.000000 -0.879047  0.132262
2
Frame 839   E = -75.33284022 Ha
O  -0.000000  0.054977 -0.003765
H   0.000000 -0.872529  0.127351
2
Frame 840   E = -75.33271912 Ha
O  -0.000000  0.054571 -0.003460
H   0.000000 -0.866080  0.122513
2
Frame 841   E = -75.33247970 Ha
O  -0.000000  0.054186 -0.003162
H   0.000000 -0.859968  0.117781
2
Frame 842   E = -75.33215224 Ha
O  -0.000000  0.053839 -0.002872
H   0.000000 -0.854458  0.113185
2
Frame 843   E = -75.33178477 Ha
O  -0.000000  0.053545 -0.002593
H   0.000000 -0.849803  0.108751
2
Frame 844   E = -75.33143607 Ha
O  -0.000000  0.053320 -0.002325
H   0.000000 -0.846229  0.104502
2
Frame 845   E = -75.33116500 Ha
O  -0.000000  0.053174 -0.002070
H   0.000000 -0.843918  0.100450
2
Frame 846   E = -75.33101844 Ha
O  -0.000000  0.053116 -0.001828
H   0.000000 -0.842997  0.096605
2
Frame 847   E = -75.33102090 Ha
O  -0.000000  0.053150 -0.001598
H   0.000000 -0.843530  0.092966
2
Frame 848   E = -75.33116879 Ha
O  -0.000000  0.053275 -0.001382
H   0.000000 -0.845508  0.089526
2
Frame 849   E = -75.33143129 Ha
O  -0.000000  0.053486 -0.001177
H   0.000000 -0.848854  0.086272
2
Frame 850   E = -75.33175735 Ha
O  -0.000000  0.053774 -0.000982
H   0.000000 -0.853426  0.083186
2
Frame 851   E = -75.33208687 Ha
O  -0.000000  0.054127 -0.000797
H   0.000000 -0.859031  0.080246
2
Frame 852   E = -75.33236274 Ha
O  -0.000000  0.054530 -0.000620
H   0.000000 -0.865433  0.077432
2
Frame 853   E = -75.33254079 Ha
O  -0.000000  0.054968 -0.000449
H   0.000000 -0.872375  0.074721
2
Frame 854   E = -75.33259585 Ha
O  -0.000000  0.055422 -0.000283
H   0.000000 -0.879588  0.072094
2
Frame 855   E = -75.33252341 Ha
O  -0.000000  0.055877 -0.000122
H   0.000000 -0.886805  0.069531
2
Frame 856   E = -75.33233766 Ha
O  -0.000000  0.056316  0.000037
H   0.000000 -0.893773  0.067018
2
Frame 857   E = -75.33206703 Ha
O  -0.000000  0.056724  0.000193
H   0.000000 -0.900259  0.064544
2
Frame 858   E = -75.33174871 Ha
O  -0.000000  0.057090  0.000347
H   0.000000 -0.906057  0.062098
2
Frame 859   E = -75.33142313 Ha
O  -0.000000  0.057401  0.000499
H   0.000000 -0.910991  0.059676
2
Frame 860   E = -75.33112902 Ha
O  -0.000000  0.057648  0.000651
H   0.000000 -0.914919  0.057272
2
Frame 861   E = -75.33089957 Ha
O  -0.000000  0.057825  0.000801
H   0.000000 -0.917729  0.054887
2
Frame 862   E = -75.33075946 Ha
O  -0.000000  0.057927  0.000950
H   0.000000 -0.919346  0.052520
2
Frame 863   E = -75.33072305 Ha
O  -0.000000  0.057951  0.001098
H   0.000000 -0.919727  0.050172
2
Frame 864   E = -75.33079326 Ha
O  -0.000000  0.057897  0.001245
H   0.000000 -0.918863  0.047848
2
Frame 865   E = -75.33096140 Ha
O  -0.000000  0.057765  0.001389
H   0.000000 -0.916780  0.045550
2
Frame 866   E = -75.33120772 Ha
O  -0.000000  0.057561  0.001532
H   0.000000 -0.913538  0.043282
2
Frame 867   E = -75.33150280 Ha
O  -0.000000  0.057290  0.001673
H   0.000000 -0.909230  0.041051
2
Frame 868   E = -75.33180989 Ha
O  -0.000000  0.056959  0.001811
H   0.000000 -0.903984  0.038861
2
Frame 869   E = -75.33208836 Ha
O  -0.000000  0.056580  0.001946
H   0.000000 -0.897961  0.036718
2
Frame 870   E = -75.33229816 Ha
O  -0.000000  0.056164  0.002078
H   0.000000 -0.891356  0.034628
2
Frame 871   E = -75.33240522 Ha
O  -0.000000  0.055725  0.002206
H   0.000000 -0.884389  0.032594
2
Frame 872   E = -75.33238723 Ha
O  -0.000000  0.055279  0.002330
H   0.000000 -0.877310  0.030624
2
Frame 873   E = -75.33223892 Ha
O  -0.000000  0.054842  0.002450
H   0.000000 -0.870383  0.028721
2
Frame 874   E = -75.33197563 Ha
O  -0.000000  0.054432  0.002565
H   0.000000 -0.863882  0.026888
2
Frame 875   E = -75.33163359 Ha
O  -0.000000  0.054067  0.002676
H   0.000000 -0.858078  0.025129
2
Frame 876   E = -75.33126604 Ha
O  -0.000000  0.053761  0.002782
H   0.000000 -0.853223  0.023447
2
Frame 877   E = -75.33093473 Ha
O  -0.000000  0.053529  0.002883
H   0.000000 -0.849539  0.021840
2
Frame 878   E = -75.33069826 Ha
O  -0.000000  0.053381  0.002980
H   0.000000 -0.847198  0.020309
2
Frame 879   E = -75.33059957 Ha
O  -0.000000  0.053325  0.003071
H   0.000000 -0.846312  0.018853
2
Frame 880   E = -75.33065620 Ha
O  -0.000000  0.053364  0.003159
H   0.000000 -0.846925  0.017469
2
Frame 881   E = -75.33085618 Ha
O  -0.000000  0.053495  0.003242
H   0.000000 -0.849008  0.016154
2
Frame 882   E = -75.33116081 Ha
O  -0.000000  0.053713  0.003320
H   0.000000 -0.852461  0.014906
2
Frame 883   E = -75.33151355 Ha
O  -0.000000  0.054006  0.003395
H   0.000000 -0.857122  0.013723
2
Frame 884   E = -75.33185220 Ha
O  -0.000000  0.054363  0.003465
H   0.000000 -0.862779  0.012603
2
Frame 885   E = -75.33212107 Ha
O  -0.000000  0.054766  0.003532
H   0.000000 -0.869184  0.011545
2
Frame 886   E = -75.33228017 Ha
O  -0.000000  0.055200  0.003595
H   0.000000 -0.876067  0.010549
2
Frame 887   E = -75.33231012 Ha
O  -0.000000  0.055647  0.003653
H   0.000000 -0.883155  0.009616
2
Frame 888   E = -75.33221258 Ha
O  -0.000000  0.056089  0.003708
H   0.000000 -0.890178  0.008749
2
Frame 889   E = -75.33200716 Ha
O  -0.000000  0.056512  0.003759
H   0.000000 -0.896886  0.007948
2
Frame 890   E = -75.33172641 Ha
O  -0.000000  0.056900  0.003805
H   0.000000 -0.903050  0.007217
2
Frame 891   E = -75.33140998 Ha
O  -0.000000  0.057242  0.003846
H   0.000000 -0.908471  0.006560
2
Frame 892   E = -75.33109903 Ha
O  -0.000000  0.057526  0.003883
H   0.000000 -0.912980  0.005979
2
Frame 893   E = -75.33083155 Ha
O  -0.000000  0.057744  0.003914
H   0.000000 -0.916443  0.005476
2
Frame 894   E = -75.33063866 Ha
O  -0.000000  0.057890  0.003941
H   0.000000 -0.918761  0.005054
2
Frame 895   E = -75.33054202 Ha
O  -0.000000  0.057960  0.003962
H   0.000000 -0.919868  0.004715
2
Frame 896   E = -75.33055220 Ha
O  -0.000000  0.057952  0.003978
H   0.000000 -0.919733  0.004460
2
Frame 897   E = -75.33066797 Ha
O  -0.000000  0.057865  0.003989
H   0.000000 -0.918360  0.004288
2
Frame 898   E = -75.33087635 Ha
O  -0.000000  0.057703  0.003995
H   0.000000 -0.915787  0.004199
2
Frame 899   E = -75.33115355 Ha
O  -0.000000  0.057470  0.003995
H   0.000000 -0.912086  0.004193
2
Frame 900   E = -75.33146674 Ha
O  -0.000000  0.057172  0.003991
H   0.000000 -0.907364  0.004267
2
Frame 901   E = -75.33177690 Ha
O  -0.000000  0.056819  0.003981
H   0.000000 -0.901764  0.004419
2
Frame 902   E = -75.33204268 Ha
O  -0.000000  0.056422  0.003967
H   0.000000 -0.895460  0.004646
2
Frame 903   E = -75.33222537 Ha
O  -0.000000  0.055994  0.003948
H   0.000000 -0.888658  0.004943
2
Frame 904   E = -75.33229458 Ha
O  -0.000000  0.055548  0.003925
H   0.000000 -0.881592  0.005309
2
Frame 905   E = -75.33223404 Ha
O  -0.000000  0.055103  0.003898
H   0.000000 -0.874518  0.005739
2
Frame 906   E = -75.33204633 Ha
O  -0.000000  0.054673  0.003867
H   0.000000 -0.867708  0.006231
2
Frame 907   E = -75.33175539 Ha
O  -0.000000  0.054278  0.003832
H   0.000000 -0.861435  0.006781
2
Frame 908   E = -75.33140516 Ha
O  -0.000000  0.053934  0.003794
H   0.000000 -0.855967  0.007387
2
Frame 909   E = -75.33105376 Ha
O  -0.000000  0.053655  0.003752
H   0.000000 -0.851545  0.008049
2
Frame 910   E = -75.33076346 Ha
O  -0.000000  0.053455  0.003707
H   0.000000 -0.848373  0.008765
2
Frame 911   E = -75.33058817 Ha
O  -0.000000  0.053344  0.003659
H   0.000000 -0.846602  0.009535
2
Frame 912   E = -75.33056164 Ha
O  -0.000000  0.053326  0.003607
H   0.000000 -0.846316  0.010362
2
Frame 913   E = -75.33068965 Ha
O  -0.000000  0.053402  0.003551
H   0.000000 -0.847529  0.011245
2
Frame 914   E = -75.33094861 Ha
O  -0.000000  0.053569  0.003491
H   0.000000 -0.850184  0.012188
2
Frame 915   E = -75.33129116 Ha
O  -0.000000  0.053819  0.003428
H   0.000000 -0.854153  0.013190
2
Frame 916   E = -75.33165676 Ha
O  -0.000000  0.054141  0.003361
H   0.000000 -0.859252  0.014256
2
Frame 917   E = -75.33198435 Ha
O  -0.000000  0.054519  0.003290
H   0.000000 -0.865253  0.015384
2
Frame 918   E = -75.33222359 Ha
O  -0.000000  0.054937  0.003215
H   0.000000 -0.871896  0.016577
2
Frame 919   E = -75.33234244 Ha
O  -0.000000  0.055379  0.003136
H   0.000000 -0.878908  0.017835
2
Frame 920   E = -75.33233014 Ha
O  -0.000000  0.055827  0.003052
H   0.000000 -0.886016  0.019157
2
Frame 921   E = -75.33219605 Ha
O  -0.000000  0.056264  0.002965
H   0.000000 -0.892958  0.020543
2
Frame 922   E = -75.33196564 Ha
O  -0.000000  0.056676  0.002874
H   0.000000 -0.899489  0.021993
2
Frame 923   E = -75.33167493 Ha
O  -0.000000  0.057048  0.002778
H   0.000000 -0.905392  0.023504
2
Frame 924   E = -75.33136470 Ha
O  -0.000000  0.057369  0.002679
H   0.000000 -0.910481  0.025075
2
Frame 925   E = -75.33107527 Ha
O  -0.000000  0.057628  0.002577
H   0.000000 -0.914602  0.026703
2
Frame 926   E = -75.33084213 Ha
O  -0.000000  0.057819  0.002471
H   0.000000 -0.917632  0.028386
2
Frame 927   E = -75.33069284 Ha
O  -0.000000  0.057936  0.002361
H   0.000000 -0.919487  0.030121
2
Frame 928   E = -75.33064479 Ha
O  -0.000000  0.057976  0.002249
H   0.000000 -0.920115  0.031907
2
Frame 929   E = -75.33070405 Ha
O  -0.000000  0.057937  0.002133
H   0.000000 -0.919496  0.033740
2
Frame 930   E = -75.33086492 Ha
O  -0.000000  0.057820  0.002015
H   0.000000 -0.917649  0.035617
2
Frame 931   E = -75.33111039 Ha
O  -0.000000  0.057630  0.001894
H   0.000000 -0.914623  0.037538
2
Frame 932   E = -75.33141335 Ha
O  -0.000000  0.057370  0.001770
H   0.000000 -0.910503  0.039501
2
Frame 933   E = -75.33173875 Ha
O  -0.000000  0.057049  0.001644
H   0.000000 -0.905409  0.041506
2
Frame 934   E = -75.33204673 Ha
O  -0.000000  0.056676  0.001515
H   0.000000 -0.899492  0.043555
2
Frame 935   E = -75.33229690 Ha
O  -0.000000  0.056263  0.001383
H   0.000000 -0.892938  0.045650
2
Frame 936   E = -75.33245341 Ha
O  -0.000000  0.055824  0.001248
H   0.000000 -0.885959  0.047797
2
Frame 937   E = -75.33249070 Ha
O  -0.000000  0.055372  0.001109
H   0.000000 -0.878797  0.050001
2
Frame 938   E = -75.33239883 Ha
O  -0.000000  0.054926  0.000966
H   0.000000 -0.871711  0.052274
2
Frame 939   E = -75.33218756 Ha
O  -0.000000  0.054501  0.000817
H   0.000000 -0.864970  0.054625
2
Frame 940   E = -75.33188749 Ha
O  -0.000000  0.054115  0.000663
H   0.000000 -0.858844  0.057070
2
Frame 941   E = -75.33154732 Ha
O  -0.000000  0.053784  0.000503
H   0.000000 -0.853589  0.059621
2
Frame 942   E = -75.33122658 Ha
O  -0.000000  0.053522  0.000334
H   0.000000 -0.849431  0.062294
2
Frame 943   E = -75.33098481 Ha
O  -0.000000  0.053341  0.000157
H   0.000000 -0.846556  0.065104
2
Frame 944   E = -75.33086924 Ha
O  -0.000000  0.053248 -0.000029
H   0.000000 -0.845089  0.068063
2
Frame 945   E = -75.33090431 Ha
O  -0.000000  0.053248 -0.000226
H   0.000000 -0.845092  0.071180
2
Frame 946   E = -75.33108601 Ha
O  -0.000000  0.053341 -0.000432
H   0.000000 -0.846553  0.074459
2
Frame 947   E = -75.33138281 Ha
O  -0.000000  0.053519 -0.000649
H   0.000000 -0.849393  0.077900
2
Frame 948   E = -75.33174299 Ha
O  -0.000000  0.053776 -0.000876
H   0.000000 -0.853466  0.081498
2
Frame 949   E = -75.33210591 Ha
O  -0.000000  0.054098 -0.001112
H   0.000000 -0.858576  0.085241
2
Frame 950   E = -75.33241418 Ha
O  -0.000000  0.054470 -0.001356
H   0.000000 -0.864486  0.089114
2
Frame 951   E = -75.33262360 Ha
O  -0.000000  0.054877 -0.001607
H   0.000000 -0.870936  0.093097
2
Frame 952   E = -75.33270912 Ha
O  -0.000000  0.055300 -0.001863
H   0.000000 -0.877656  0.097170
2
Frame 953   E = -75.33266640 Ha
O  -0.000000  0.055724 -0.002124
H   0.000000 -0.884380  0.101307
2
Frame 954   E = -75.33250971 Ha
O  -0.000000  0.056132 -0.002387
H   0.000000 -0.890855  0.105485
2
Frame 955   E = -75.33226743 Ha
O  -0.000000  0.056510 -0.002651
H   0.000000 -0.896850  0.109680
2
Frame 956   E = -75.33197656 Ha
O  -0.000000  0.056844 -0.002915
H   0.000000 -0.902159  0.113870
2
Frame 957   E = -75.33167720 Ha
O  -0.000000  0.057125 -0.003178
H   0.000000 -0.906609  0.118033
2
Frame 958   E = -75.33140777 Ha
O  -0.000000  0.057342 -0.003437
H   0.000000 -0.910058  0.122150
2
Frame 959   E = -75.33120113 Ha
O  -0.000000  0.057489 -0.003693
H   0.000000 -0.912396  0.126206
2
Frame 960   E = -75.33108189 Ha
O  -0.000000  0.057562 -0.003944
H   0.000000 -0.913547  0.130187
2
Frame 961   E = -75.33106454 Ha
O  -0.000000  0.057557 -0.004189
H   0.000000 -0.913470  0.134083
2
Frame 962   E = -75.33115256 Ha
O  -0.000000  0.057474 -0.004429
H   0.000000 -0.912153  0.137887
2
Frame 963   E = -75.33133821 Ha
O  -0.000000  0.057314 -0.004662
H   0.000000 -0.909621  0.141596
2
Frame 964   E = -75.33160311 Ha
O  -0.000000  0.057082 -0.004890
H   0.000000 -0.905928  0.145213
2
Frame 965   E = -75.33191957 Ha
O  -0.000000  0.056782 -0.005113
H   0.000000 -0.901164  0.148745
2
Frame 966   E = -75.33225278 Ha
O  -0.000000  0.056421 -0.005331
H   0.000000 -0.895449  0.152203
2
Frame 967   E = -75.33256399 Ha
O  -0.000000  0.056011 -0.005545
H   0.000000 -0.888935  0.155605
2
Frame 968   E = -75.33281457 Ha
O  -0.000000  0.055562 -0.005757
H   0.000000 -0.881805  0.158975
2
Frame 969   E = -75.33297102 Ha
O  -0.000000  0.055087 -0.005970
H   0.000000 -0.874268  0.162343
2
Frame 970   E = -75.33301027 Ha
O  -0.000000  0.054601 -0.006184
H   0.000000 -0.866559  0.165746
2
Frame 971   E = -75.33292469 Ha
O  -0.000000  0.054120 -0.006403
H   0.000000 -0.858928  0.169226
2
Frame 972   E = -75.33272560 Ha
O  -0.000000  0.053661 -0.006630
H   0.000000 -0.851633  0.172830
2
Frame 973   E = -75.33244401 Ha
O  -0.000000  0.053238 -0.006868
H   0.000000 -0.844932  0.176606
2
Frame 974   E = -75.33212757 Ha
O  -0.000000  0.052869 -0.007120
H   0.000000 -0.839066  0.180605
2
Frame 975   E = -75.33183342 Ha
O  -0.000000  0.052565 -0.007389
H   0.000000 -0.834249  0.184875
2
Frame 976   E = -75.33161778 Ha
O  -0.000000  0.052339 -0.007678
H   0.000000 -0.830650  0.189456
2
Frame 977   E = -75.33152442 Ha
O  -0.000000  0.052196 -0.007988
H   0.000000 -0.828385  0.194380
2
Frame 978   E = -75.33157505 Ha
O  -0.000000  0.052140 -0.008322
H   0.000000 -0.827506  0.199669
2
Frame 979   E = -75.33176437 Ha
O  -0.000000  0.052171 -0.008678
H   0.000000 -0.827997  0.205326
2
Frame 980   E = -75.33206132 Ha
O  -0.000000  0.052283 -0.009057
H   0.000000 -0.829777  0.211343
2
Frame 981   E = -75.33241615 Ha
O  -0.000000  0.052468 -0.009457
H   0.000000 -0.832706  0.217694
2
Frame 982   E = -75.33277111 Ha
O  -0.000000  0.052713 -0.009876
H   0.000000 -0.836596  0.224341
2
Frame 983   E = -75.33307177 Ha
O  -0.000000  0.053004 -0.010310
H   0.000000 -0.841220  0.231233
2
Frame 984   E = -75.33327627 Ha
O  -0.000000  0.053327 -0.010756
H   0.000000 -0.846332  0.238311
2
Frame 985   E = -75.33336087 Ha
O  -0.000000  0.053663 -0.011210
H   0.000000 -0.851678  0.245511
2
Frame 986   E = -75.33332136 Ha
O  -0.000000  0.053999 -0.011667
H   0.000000 -0.857008  0.252767
2
Frame 987   E = -75.33317108 Ha
O  -0.000000  0.054319 -0.012124
H   0.000000 -0.862082  0.260012
2
Frame 988   E = -75.33293683 Ha
O  -0.000000  0.054609 -0.012576
H   0.000000 -0.866684  0.267184
2
Frame 989   E = -75.33265365 Ha
O  -0.000000  0.054857 -0.013019
H   0.000000 -0.870622  0.274223
2
Frame 990   E = -75.33235977 Ha
O  -0.000000  0.055053 -0.013451
H   0.000000 -0.873732  0.281077
2
Frame 991   E = -75.33209206 Ha
O  -0.000000  0.055188 -0.013868
H   0.000000 -0.875880  0.287698
2
Frame 992   E = -75.33188248 Ha
O  -0.000000  0.055257 -0.014268
H   0.000000 -0.876964  0.294050
2
Frame 993   E = -75.33175544 Ha
O  -0.000000  0.055253 -0.014650
H   0.000000 -0.876910  0.300101
2
Frame 994   E = -75.33172610 Ha
O  -0.000000  0.055176 -0.015011
H   0.000000 -0.875677  0.305830
2
Frame 995   E = -75.33179942 Ha
O  -0.000000  0.055023 -0.015351
H   0.000000 -0.873253  0.311224
2
Frame 996   E = -75.33196993 Ha
O  -0.000000  0.054796 -0.015669
H   0.000000 -0.869655  0.316280
2
Frame 997   E = -75.33222210 Ha
O  -0.000000  0.054499 -0.015967
H   0.000000 -0.864932  0.321005
2
Frame 998   E = -75.33253146 Ha
O  -0.000000  0.054135 -0.016245
H   0.000000 -0.859160  0.325418
2
Frame 999   E = -75.33286640 Ha
O  -0.000000  0.053712 -0.016505
H   0.000000 -0.852444  0.329547
2
Frame 1000   E = -75.33319082 Ha
O  -0.000000  0.053237 -0.016750
H   0.000000 -0.844918  0.333434
2
Frame 1001   E = -75.33346766 Ha
O  -0.000000  0.052722 -0.016983
H   0.000000 -0.836743  0.337131
2
Frame 1002   E = -75.33366325 Ha
O  -0.000000  0.052178 -0.017208
H   0.000000 -0.828105  0.340705
2
Frame 1003   E = -75.33375218 Ha
O  -0.000000  0.051618 -0.017430
H   0.000000 -0.819211  0.344231
2
Frame 1004   E = -75.33372203 Ha
O  -0.000000  0.051055 -0.017655
H   0.000000 -0.810284  0.347797
2
Frame 1005   E = -75.33357716 Ha
O  -0.000000  0.050505 -0.017888
H   0.000000 -0.801558  0.351499
2
Frame 1006   E = -75.33334036 Ha
O  -0.000000  0.049983 -0.018136
H   0.000000 -0.793265  0.355435
2
Frame 1007   E = -75.33305129 Ha
O  -0.000000  0.049502 -0.018405
H   0.000000 -0.785628  0.359705
2
Frame 1008   E = -75.33276123 Ha
O  -0.000000  0.049074 -0.018701
H   0.000000 -0.778847  0.364404
2
Frame 1009   E = -75.33252441 Ha
O  -0.000000  0.048712 -0.019030
H   0.000000 -0.773089  0.369615
2
Frame 1010   E = -75.33238752 Ha
O  -0.000000  0.048421 -0.019394
H   0.000000 -0.768472  0.375403
2
Frame 1011   E = -75.33237989 Ha
O  -0.000000  0.048206 -0.019798
H   0.000000 -0.765064  0.381810
2
Frame 1012   E = -75.33250698 Ha
O  -0.000000  0.048068 -0.020242
H   0.000000 -0.762872  0.388854
2
Frame 1013   E = -75.33274920 Ha
O  -0.000000  0.048003 -0.020725
H   0.000000 -0.761846  0.396520
2
Frame 1014   E = -75.33306629 Ha
O  -0.000000  0.048005 -0.021245
H   0.000000 -0.761878  0.404767
2
Frame 1015   E = -75.33340606 Ha
O  -0.000000  0.048065 -0.021797
H   0.000000 -0.762819  0.413527
2
Frame 1016   E = -75.33371491 Ha
O  -0.000000  0.048169 -0.022375
H   0.000000 -0.764481  0.422712
2
Frame 1017   E = -75.33394735 Ha
O  -0.000000  0.048306 -0.022974
H   0.000000 -0.766653  0.432214
2
Frame 1018   E = -75.33407287 Ha
O  -0.000000  0.048461 -0.023585
H   0.000000 -0.769115  0.441918
2
Frame 1019   E = -75.33407890 Ha
O  -0.000000  0.048621 -0.024202
H   0.000000 -0.771646  0.451701
2
Frame 1020   E = -75.33397044 Ha
O  -0.000000  0.048771 -0.024816
H   0.000000 -0.774032  0.461443
2
Frame 1021   E = -75.33376705 Ha
O  -0.000000  0.048900 -0.025420
H   0.000000 -0.776078  0.471026
2
Frame 1022   E = -75.33349852 Ha
O  -0.000000  0.048996 -0.026007
H   0.000000 -0.777607  0.480343
2
Frame 1023   E = -75.33320005 Ha
O  -0.000000  0.049050 -0.026571
H   0.000000 -0.778466  0.489295
2
Frame 1024   E = -75.33290776 Ha
O  -0.000000  0.049055 -0.027106
H   0.000000 -0.778531  0.497797
2
Frame 1025   E = -75.33265495 Ha
O  -0.000000  0.049002 -0.027609
H   0.000000 -0.777700  0.505775
2
Frame 1026   E = -75.33246923 Ha
O  -0.000000  0.048889 -0.028075
H   0.000000 -0.775899  0.513174
2
Frame 1027   E = -75.33237049 Ha
O  -0.000000  0.048711 -0.028502
H   0.000000 -0.773081  0.519949
2
Frame 1028   E = -75.33236957 Ha
O  -0.000000  0.048468 -0.028888
H   0.000000 -0.769224  0.526074
2
Frame 1029   E = -75.33246771 Ha
O  -0.000000  0.048160 -0.029232
H   0.000000 -0.764329  0.531537
2
Frame 1030   E = -75.33265646 Ha
O  -0.000000  0.047788 -0.029535
H   0.000000 -0.758425  0.536344
2
Frame 1031   E = -75.33291824 Ha
O  -0.000000  0.047355 -0.029798
H   0.000000 -0.751563  0.540517
2
Frame 1032   E = -75.33322751 Ha
O  -0.000000  0.046867 -0.030024
H   0.000000 -0.743818  0.544096
2
Frame 1033   E = -75.33355260 Ha
O  -0.000000  0.046330 -0.030215
H   0.000000 -0.735289  0.547139
2
Frame 1034   E = -75.33385836 Ha
O  -0.000000  0.045751 -0.030378
H   0.000000 -0.726097  0.549723
2
Frame 1035   E = -75.33410965 Ha
O  -0.000000  0.045139 -0.030518
H   0.000000 -0.716383  0.551945
2
Frame 1036   E = -75.33427550 Ha
O  -0.000000  0.044504 -0.030642
H   0.000000 -0.706308  0.553917
2
Frame 1037   E = -75.33433370 Ha
O  -0.000000  0.043858 -0.030759
H   0.000000 -0.696051  0.555770
2
Frame 1038   E = -75.33427518 Ha
O  -0.000000  0.043211 -0.030877
H   0.000000 -0.685797  0.557646
2
Frame 1039   E = -75.33410725 Ha
O  -0.000000  0.042578 -0.031007
H   0.000000 -0.675741  0.559701
2
Frame 1040   E = -75.33385473 Ha
O  -0.000000  0.041969 -0.031157
H   0.000000 -0.666071  0.562089
2
Frame 1041   E = -75.33355789 Ha
O  -0.000000  0.041395 -0.031339
H   0.000000 -0.656967  0.564965
2
Frame 1042   E = -75.33326694 Ha
O  -0.000000  0.040867 -0.031559
H   0.000000 -0.648585  0.568470
2
Frame 1043   E = -75.33303342 Ha
O  -0.000000  0.040392 -0.031827
H   0.000000 -0.641051  0.572723
2
Frame 1044   E = -75.33290025 Ha
O  -0.000000  0.039976 -0.032148
H   0.000000 -0.634454  0.577816
2
Frame 1045   E = -75.33289273 Ha
O  -0.000000  0.039622 -0.032525
H   0.000000 -0.628837  0.583803
2
Frame 1046   E = -75.33301292 Ha
O  -0.000000  0.039330 -0.032960
H   0.000000 -0.624196  0.590695
2
Frame 1047   E = -75.33323924 Ha
O  -0.000000  0.039096 -0.033449
H   0.000000 -0.620480  0.598461
2
Frame 1048   E = -75.33353123 Ha
O  -0.000000  0.038914 -0.033989
H   0.000000 -0.617599  0.607030
2
Frame 1049   E = -75.33383811 Ha
O  -0.000000  0.038777 -0.034573
H   0.000000 -0.615425  0.616292
2
Frame 1050   E = -75.33410879 Ha
O  -0.000000  0.038675 -0.035191
H   0.000000 -0.613807  0.626108
2
Frame 1051   E = -75.33430082 Ha
O  -0.000000  0.038598 -0.035834
H   0.000000 -0.612579  0.636317
2
Frame 1052   E = -75.33438649 Ha
O  -0.000000  0.038534 -0.036491
H   0.000000 -0.611566  0.646745
2
Frame 1053   E = -75.33435541 Ha
O  -0.000000  0.038473 -0.037151
H   0.000000 -0.610597  0.657215
2
Frame 1054   E = -75.33421395 Ha
O  -0.000000  0.038405 -0.037802
H   0.000000 -0.609511  0.667552
2
Frame 1055   E = -75.33398223 Ha
O  -0.000000  0.038320 -0.038435
H   0.000000 -0.608160  0.677590
2
Frame 1056   E = -75.33368988 Ha
O  -0.000000  0.038209 -0.039039
H   0.000000 -0.606412  0.687176
2
Frame 1057   E = -75.33337149 Ha
O  -0.000000  0.038067 -0.039606
H   0.000000 -0.604156  0.696175
2
Frame 1058   E = -75.33306234 Ha
O  -0.000000  0.037887 -0.040129
H   0.000000 -0.601301  0.704469
2
Frame 1059   E = -75.33279478 Ha
O  -0.000000  0.037665 -0.040601
H   0.000000 -0.597776  0.711962
2
Frame 1060   E = -75.33259555 Ha
O  -0.000000  0.037398 -0.041018
H   0.000000 -0.593532  0.718579
2
Frame 1061   E = -75.33248373 Ha
O  -0.000000  0.037083 -0.041376
H   0.000000 -0.588537  0.724265
2
Frame 1062   E = -75.33246956 Ha
O  -0.000000  0.036721 -0.041674
H   0.000000 -0.582781  0.728990
2
Frame 1063   E = -75.33255376 Ha
O  -0.000000  0.036310 -0.041910
H   0.000000 -0.576272  0.732744
2
Frame 1064   E = -75.33272748 Ha
O  -0.000000  0.035854 -0.042087
H   0.000000 -0.569034  0.735543
2
Frame 1065   E = -75.33297281 Ha
O  -0.000000  0.035355 -0.042205
H   0.000000 -0.561112  0.737425
2
Frame 1066   E = -75.33326392 Ha
O  -0.000000  0.034817 -0.042270
H   0.000000 -0.552565  0.738451
2
Frame 1067   E = -75.33356887 Ha
O  -0.000000  0.034244 -0.042286
H   0.000000 -0.543470  0.738708
2
Frame 1068   E = -75.33385227 Ha
O  -0.000000  0.033642 -0.042261
H   0.000000 -0.533921  0.738309
2
Frame 1069   E = -75.33407879 Ha
O  -0.000000  0.033018 -0.042203
H   0.000000 -0.524026  0.737390
2
Frame 1070   E = -75.33421740 Ha
O  -0.000000  0.032381 -0.042122
H   0.000000 -0.513903  0.736109
2
Frame 1071   E = -75.33424605 Ha
O  -0.000000  0.031737 -0.042030
H   0.000000 -0.503684  0.734646
2
Frame 1072   E = -75.33415615 Ha
O  -0.000000  0.031095 -0.041939
H   0.000000 -0.493505  0.733198
2
Frame 1073   E = -75.33395584 Ha
O  -0.000000  0.030465 -0.041861
H   0.000000 -0.483506  0.731971
2
Frame 1074   E = -75.33367110 Ha
O  -0.000000  0.029855 -0.041811
H   0.000000 -0.473823  0.731174
2
Frame 1075   E = -75.33334359 Ha
O  -0.000000  0.029273 -0.041801
H   0.000000 -0.464580  0.731009
2
Frame 1076   E = -75.33302487 Ha
O  -0.000000  0.028725 -0.041842
H   0.000000 -0.455887  0.731659
2
Frame 1077   E = -75.33276756 Ha
O  -0.000000  0.028217 -0.041944
H   0.000000 -0.447829  0.733278
2
Frame 1078   E = -75.33261498 Ha
O  -0.000000  0.027753 -0.042114
H   0.000000 -0.440463  0.735977
2
Frame 1079   E = -75.33259204 Ha
O  -0.000000  0.027334 -0.042356
H   0.000000 -0.433814  0.739820
2
Frame 1080   E = -75.33269966 Ha
O  -0.000000  0.026960 -0.042671
H   0.000000 -0.427873  0.744814
2
Frame 1081   E = -75.33291454 Ha
O  -0.000000  0.026628 -0.043055
H   0.000000 -0.422600  0.750911
2
Frame 1082   E = -75.33319435 Ha
O  -0.000000  0.026333 -0.043502
H   0.000000 -0.417927  0.758012
2
Frame 1083   E = -75.33348671 Ha
O  -0.000000  0.026071 -0.044004
H   0.000000 -0.413763  0.765969
2
Frame 1084   E = -75.33373956 Ha
O  -0.000000  0.025834 -0.044547
H   0.000000 -0.410002  0.774601
2
Frame 1085   E = -75.33391025 Ha
O  -0.000000  0.025615 -0.045121
H   0.000000 -0.406529  0.783699
2
Frame 1086   E = -75.33397168 Ha
O  -0.000000  0.025407 -0.045710
H   0.000000 -0.403228  0.793045
2
Frame 1087   E = -75.33391471 Ha
O  -0.000000  0.025203 -0.046300
H   0.000000 -0.399985  0.802414
2
Frame 1088   E = -75.33374735 Ha
O  -0.000000  0.024995 -0.046878
H   0.000000 -0.396694  0.811590
2
Frame 1089   E = -75.33349151 Ha
O  -0.000000  0.024779 -0.047431
H   0.000000 -0.393261  0.820368
2
Frame 1090   E = -75.33317852 Ha
O  -0.000000  0.024549 -0.047948
H   0.000000 -0.389603  0.828565
2
Frame 1091   E = -75.33284436 Ha
O  -0.000000  0.024300 -0.048417
H   0.000000 -0.385653  0.836019
2
Frame 1092   E = -75.33252523 Ha
O  -0.000000  0.024029 -0.048832
H   0.000000 -0.381357  0.842591
2
Frame 1093   E = -75.33225388 Ha
O  -0.000000  0.023734 -0.049183
H   0.000000 -0.376674  0.848173
2
Frame 1094   E = -75.33205678 Ha
O  -0.000000  0.023413 -0.049467
H   0.000000 -0.371577  0.852681
2
Frame 1095   E = -75.33195210 Ha
O  -0.000000  0.023065 -0.049680
H   0.000000 -0.366054  0.856059
2
Frame 1096   E = -75.33194848 Ha
O  -0.000000  0.022690 -0.049820
H   0.000000 -0.360103  0.858280
2
Frame 1097   E = -75.33204441 Ha
O  -0.000000  0.022288 -0.049887
H   0.000000 -0.353735  0.859346
2
Frame 1098   E = -75.33222829 Ha
O  -0.000000  0.021862 -0.049883
H   0.000000 -0.346970  0.859285
2
Frame 1099   E = -75.33247906 Ha
O  -0.000000  0.021413 -0.049812
H   0.000000 -0.339841  0.858156
2
Frame 1100   E = -75.33276766 Ha
O  -0.000000  0.020944 -0.049679
H   0.000000 -0.332391  0.856049
2
Frame 1101   E = -75.33305919 Ha
O  -0.000000  0.020457 -0.049492
H   0.000000 -0.324673  0.853080
2
Frame 1102   E = -75.33331606 Ha
O  -0.000000  0.019958 -0.049260
H   0.000000 -0.316746  0.849397
2
Frame 1103   E = -75.33350210 Ha
O  -0.000000  0.019450 -0.048994
H   0.000000 -0.308681  0.845176
2
Frame 1104   E = -75.33358734 Ha
O  -0.000000  0.018938 -0.048707
H   0.000000 -0.300552  0.840617
2
Frame 1105   E = -75.33355311 Ha
O  -0.000000  0.018426 -0.048413
H   0.000000 -0.292441  0.835944
2
Frame 1106   E = -75.33339660 Ha
O  -0.000000  0.017922 -0.048126
H   0.000000 -0.284429  0.831395
2
Frame 1107   E = -75.33313368 Ha
O  -0.000000  0.017428 -0.047863
H   0.000000 -0.276597  0.827219
2
Frame 1108   E = -75.33279897 Ha
O  -0.000000  0.016951 -0.047639
H   0.000000 -0.269022  0.823658
2
Frame 1109   E = -75.33244194 Ha
O  -0.000000  0.016494 -0.047467
H   0.000000 -0.261771  0.820941
2
Frame 1110   E = -75.33211925 Ha
O  -0.000000  0.016061 -0.047362
H   0.000000 -0.254901  0.819268
2
Frame 1111   E = -75.33188420 Ha
O  -0.000000  0.015655 -0.047332
H   0.000000 -0.248451  0.818796
2
Frame 1112   E = -75.33177568 Ha
O  -0.000000  0.015276 -0.047385
H   0.000000 -0.242443  0.819629
2
Frame 1113   E = -75.33180955 Ha
O  -0.000000  0.014925 -0.047522
H   0.000000 -0.236878  0.821808
2
Frame 1114   E = -75.33197502 Ha
O  -0.000000  0.014602 -0.047743
H   0.000000 -0.231741  0.825310
2
Frame 1115   E = -75.33223705 Ha
O  -0.000000  0.014303 -0.048041
H   0.000000 -0.226997  0.830049
2
Frame 1116   E = -75.33254418 Ha
O  -0.000000  0.014026 -0.048409
H   0.000000 -0.222601  0.835878
2
Frame 1117   E = -75.33283934 Ha
O  -0.000000  0.013767 -0.048833
H   0.000000 -0.218494  0.842608
2
Frame 1118   E = -75.33307082 Ha
O  -0.000000  0.013523 -0.049299
H   0.000000 -0.214617  0.850013
2
Frame 1119   E = -75.33320073 Ha
O  -0.000000  0.013289 -0.049793
H   0.000000 -0.210903  0.857846
2
Frame 1120   E = -75.33320969 Ha
O  -0.000000  0.013061 -0.050297
H   0.000000 -0.207292  0.865854
2
Frame 1121   E = -75.33309761 Ha
O  -0.000000  0.012837 -0.050797
H   0.000000 -0.203726  0.873787
2
Frame 1122   E = -75.33288121 Ha
O  -0.000000  0.012611 -0.051277
H   0.000000 -0.200153  0.881409
2
Frame 1123   E = -75.33258970 Ha
O  -0.000000  0.012383 -0.051724
H   0.000000 -0.196531  0.888502
2
Frame 1124   E = -75.33225953 Ha
O  -0.000000  0.012150 -0.052126
H   0.000000 -0.192822  0.894876
2
Frame 1125   E = -75.33192939 Ha
O  -0.000000  0.011909 -0.052472
H   0.000000 -0.188998  0.900368
2
Frame 1126   E = -75.33163574 Ha
O  -0.000000  0.011659 -0.052754
H   0.000000 -0.185039  0.904845
2
Frame 1127   E = -75.33140937 Ha
O  -0.000000  0.011400 -0.052966
H   0.000000 -0.180932  0.908205
2
Frame 1128   E = -75.33127280 Ha
O  -0.000000  0.011132 -0.053103
H   0.000000 -0.176669  0.910378
2
Frame 1129   E = -75.33123862 Ha
O  -0.000000  0.010853 -0.053163
H   0.000000 -0.172252  0.911327
2
Frame 1130   E = -75.33130862 Ha
O  -0.000000  0.010566 -0.053145
H   0.000000 -0.167684  0.911046
2
Frame 1131   E = -75.33147358 Ha
O  -0.000000  0.010269 -0.053051
H   0.000000 -0.162976  0.909560
2
Frame 1132   E = -75.33171382 Ha
O  -0.000000  0.009965 -0.052885
H   0.000000 -0.158145  0.906929
2
Frame 1133   E = -75.33200058 Ha
O  -0.000000  0.009654 -0.052653
H   0.000000 -0.153210  0.903244
2
Frame 1134   E = -75.33229818 Ha
O  -0.000000  0.009338 -0.052362
H   0.000000 -0.148195  0.898628
2
Frame 1135   E = -75.33256731 Ha
O  -0.000000  0.009018 -0.052023
H   0.000000 -0.143127  0.893239
2
Frame 1136   E = -75.33276922 Ha
O  -0.000000  0.008698 -0.051646
H   0.000000 -0.138038  0.887262
2
Frame 1137   E = -75.33287088 Ha
O  -0.000000  0.008378 -0.051246
H   0.000000 -0.132960  0.880914
2
Frame 1138   E = -75.33285049 Ha
O  -0.000000  0.008061 -0.050838
H   0.000000 -0.127929  0.874434
2
Frame 1139   E = -75.33270250 Ha
O  -0.000000  0.007749 -0.050438
H   0.000000 -0.122978  0.868080
2
Frame 1140   E = -75.33244113 Ha
O  -0.000000  0.007444 -0.050062
H   0.000000 -0.118142  0.862118
2
Frame 1141   E = -75.33210077 Ha
O  -0.000000  0.007149 -0.049728
H   0.000000 -0.113452  0.856811
2
Frame 1142   E = -75.33173237 Ha
O  -0.000000  0.006864 -0.049450
H   0.000000 -0.108935  0.852409
2
Frame 1143   E = -75.33139560 Ha
O  -0.000000  0.006591 -0.049243
H   0.000000 -0.104611  0.849127
2
Frame 1144   E = -75.33114767 Ha
O  -0.000000  0.006332 -0.049118
H   0.000000 -0.100496  0.847137
2
Frame 1145   E = -75.33103137 Ha
O  -0.000000  0.006086 -0.049081
H   0.000000 -0.096596  0.846555
2
Frame 1146   E = -75.33106548 Ha
O  -0.000000  0.005854 -0.049136
H   0.000000 -0.092909  0.847428
2
Frame 1147   E = -75.33124035 Ha
O  -0.000000  0.005635 -0.049281
H   0.000000 -0.089426  0.849732
2
Frame 1148   E = -75.33152017 Ha
O  -0.000000  0.005427 -0.049511
H   0.000000 -0.086132  0.853376
2
Frame 1149   E = -75.33185106 Ha
O  -0.000000  0.005230 -0.049815
H   0.000000 -0.083009  0.858207
2
Frame 1150   E = -75.33217269 Ha
O  -0.000000  0.005043 -0.050182
H   0.000000 -0.080033  0.864021
2
Frame 1151   E = -75.33243007 Ha
O  -0.000000  0.004863 -0.050595
H   0.000000 -0.077181  0.870579
2
Frame 1152   E = -75.33258275 Ha
O  -0.000000  0.004690 -0.051039
H   0.000000 -0.074430  0.877618
2
Frame 1153   E = -75.33260996 Ha
O  -0.000000  0.004521 -0.051496
H   0.000000 -0.071759  0.884871
2
Frame 1154   E = -75.33251138 Ha
O  -0.000000  0.004357 -0.051949
H   0.000000 -0.069150  0.892072
2
Frame 1155   E = -75.33230460 Ha
O  -0.000000  0.004196 -0.052384
H   0.000000 -0.066586  0.898973
2
Frame 1156   E = -75.33202030 Ha
O  -0.000000  0.004036 -0.052786
H   0.000000 -0.064056  0.905346
2
Frame 1157   E = -75.33169674 Ha
O  -0.000000  0.003878 -0.053141
H   0.000000 -0.061550  0.910991
2
Frame 1158   E = -75.33137432 Ha
O  -0.000000  0.003721 -0.053441
H   0.000000 -0.059062  0.915741
2
Frame 1159   E = -75.33109085 Ha
O  -0.000000  0.003566 -0.053675
H   0.000000 -0.056589  0.919457
2
Frame 1160   E = -75.33087791 Ha
O  -0.000000  0.003411 -0.053837
H   0.000000 -0.054129  0.922038
2
Frame 1161   E = -75.33075815 Ha
O  -0.000000  0.003256 -0.053924
H   0.000000 -0.051682  0.923413
2
Frame 1162   E = -75.33074357 Ha
O  -0.000000  0.003103 -0.053933
H   0.000000 -0.049251  0.923548
2
Frame 1163   E = -75.33083471 Ha
O  -0.000000  0.002951 -0.053863
H   0.000000 -0.046838  0.922441
2
Frame 1164   E = -75.33102054 Ha
O  -0.000000  0.002801 -0.053717
H   0.000000 -0.044448  0.920125
2
Frame 1165   E = -75.33127917 Ha
O  -0.000000  0.002652 -0.053499
H   0.000000 -0.042086  0.916665
2
Frame 1166   E = -75.33157950 Ha
O  -0.000000  0.002505 -0.053215
H   0.000000 -0.039757  0.912163
2
Frame 1167   E = -75.33188369 Ha
O  -0.000000  0.002361 -0.052874
H   0.000000 -0.037468  0.906754
2
Frame 1168   E = -75.33215088 Ha
O  -0.000000  0.002219 -0.052487
H   0.000000 -0.035224  0.900605
2
Frame 1169   E = -75.33234181 Ha
O  -0.000000  0.002081 -0.052065
H   0.000000 -0.033032  0.893915
2
Frame 1170   E = -75.33242436 Ha
O  -0.000000  0.001947 -0.051624
H   0.000000 -0.030897  0.886914
2
Frame 1171   E = -75.33237932 Ha
O  -0.000000  0.001816 -0.051179
H   0.000000 -0.028826  0.879851
2
Frame 1172   E = -75.33220541 Ha
O  -0.000000  0.001690 -0.050747
H   0.000000 -0.026823  0.872996
2
Frame 1173   E = -75.33192231 Ha
O  -0.000000  0.001569 -0.050346
H   0.000000 -0.024894  0.866623
2
Frame 1174   E = -75.33157014 Ha
O  -0.000000  0.001452 -0.049991
H   0.000000 -0.023040  0.860998
2
Frame 1175   E = -75.33120465 Ha
O  -0.000000  0.001340 -0.049700
H   0.000000 -0.021266  0.856371
2
Frame 1176   E = -75.33088793 Ha
O  -0.000000  0.001233 -0.049484
H   0.000000 -0.019570  0.852952
2
Frame 1177   E = -75.33067631 Ha
O  -0.000000  0.001131 -0.049355
H   0.000000 -0.017954  0.850904
2
Frame 1178   E = -75.33060820 Ha
O  -0.000000  0.001034 -0.049319
H   0.000000 -0.016415  0.850325
2
Frame 1179   E = -75.33069529 Ha
O  -0.000000  0.000942 -0.049377
H   0.000000 -0.014951  0.851243
2
Frame 1180   E = -75.33091974 Ha
O  -0.000000  0.000854 -0.049526
H   0.000000 -0.013559  0.853617
2
Frame 1181   E = -75.33123841 Ha
O  -0.000000  0.000771 -0.049760
H   0.000000 -0.012237  0.857331
2
Frame 1182   E = -75.33159261 Ha
O  -0.000000  0.000692 -0.050068
H   0.000000 -0.010980  0.862213
2
Frame 1183   E = -75.33192059 Ha
O  -0.000000  0.000617 -0.050435
H   0.000000 -0.009788  0.868043
2
Frame 1184   E = -75.33216924 Ha
O  -0.000000  0.000546 -0.050846
H   0.000000 -0.008659  0.874567
2
Frame 1185   E = -75.33230254 Ha
O  -0.000000  0.000478 -0.051284
H   0.000000 -0.007593  0.881514
2
Frame 1186   E = -75.33230546 Ha
O  -0.000000  0.000415 -0.051731
H   0.000000 -0.006591  0.888609
2
Frame 1187   E = -75.33218359 Ha
O  -0.000000  0.000356 -0.052171
H   0.000000 -0.005653  0.895589
2
Frame 1188   E = -75.33195961 Ha
O  -0.000000  0.000301 -0.052588
H   0.000000 -0.004784  0.902204
2
Frame 1189   E = -75.33166795 Ha
O  -0.000000  0.000251 -0.052967
H   0.000000 -0.003984  0.908232
2
Frame 1190   E = -75.33134898 Ha
O  -0.000000  0.000205 -0.053298
H   0.000000 -0.003257  0.913480
2
Frame 1191   E = -75.33104355 Ha
O  -0.000000  0.000164 -0.053569
H   0.000000 -0.002606  0.917786
2
Frame 1192   E = -75.33078852 Ha
O  -0.000000  0.000128 -0.053774
H   0.000000 -0.002034  0.921025
2
Frame 1193   E = -75.33061327 Ha
O  -0.000000  0.000097 -0.053904
H   0.000000 -0.001542  0.923101
2
Frame 1194   E = -75.33053731 Ha
O  -0.000000  0.000071 -0.053958
H   0.000000 -0.001132  0.923958
2
Frame 1195   E = -75.33056888 Ha
O  -0.000000  0.000051 -0.053934
H   0.000000 -0.000805  0.923570
2
Frame 1196   E = -75.33070434 Ha
O  -0.000000  0.000035 -0.053832
H   0.000000 -0.000561  0.921950
2
Frame 1197   E = -75.33092845 Ha
O  -0.000000  0.000025 -0.053655
H   0.000000 -0.000400  0.919140
2
Frame 1198   E = -75.33121541 Ha
O  -0.000000  0.000020 -0.053408
H   0.000000 -0.000321  0.915223
2
Frame 1199   E = -75.33153090 Ha
O  -0.000000  0.000020 -0.053098
H   0.000000 -0.000321  0.910310
2
Frame 1200   E = -75.33183506 Ha
O  -0.000000  0.000025 -0.052736
H   0.000000 -0.000398  0.904552
2
Frame 1201   E = -75.33208666 Ha
O  -0.000000  0.000035 -0.052331
H   0.000000 -0.000550  0.898128
2
Frame 1202   E = -75.33224816 Ha
O  -0.000000  0.000049 -0.051898
H   0.000000 -0.000772  0.891251
2
Frame 1203   E = -75.33229159 Ha
O  -0.000000  0.000067 -0.051451
H   0.000000 -0.001062  0.884161
2
Frame 1204   E = -75.33220410 Ha
O  -0.000000  0.000089 -0.051007
H   0.000000 -0.001415  0.877116
2
Frame 1205   E = -75.33199250 Ha
O  -0.000000  0.000115 -0.050583
H   0.000000 -0.001829  0.870390
2
Frame 1206   E = -75.33168499 Ha
O  -0.000000  0.000145 -0.050197
H   0.000000 -0.002300  0.864257
2
Frame 1207   E = -75.33132899 Ha
O  -0.000000  0.000178 -0.049864
H   0.000000 -0.002827  0.858980
2
Frame 1208   E = -75.33098442 Ha
O  -0.000000  0.000215 -0.049600
H   0.000000 -0.003408  0.854795
2
Frame 1209   E = -75.33071290 Ha
O  -0.000000  0.000255 -0.049418
H   0.000000 -0.004042  0.851894
2
Frame 1210   E = -75.33056519 Ha
O  -0.000000  0.000298 -0.049325
H   0.000000 -0.004730  0.850417
2
Frame 1211   E = -75.33056985 Ha
O  -0.000000  0.000345 -0.049326
H   0.000000 -0.005472  0.850434
2
Frame 1212   E = -75.33072662 Ha
O  -0.000000  0.000395 -0.049421
H   0.000000 -0.006270  0.851946
2
Frame 1213   E = -75.33100649 Ha
O  -0.000000  0.000449 -0.049606
H   0.000000 -0.007124  0.854878
2
Frame 1214   E = -75.33135844 Ha
O  -0.000000  0.000506 -0.049871
H   0.000000 -0.008038  0.859093
2
Frame 1215   E = -75.33172078 Ha
O  -0.000000  0.000568 -0.050205
H   0.000000 -0.009012  0.864396
2
Frame 1216   E = -75.33203378 Ha
O  -0.000000  0.000633 -0.050593
H   0.000000 -0.010049  0.870549
2
Frame 1217   E = -75.33225030 Ha
O  -0.000000  0.000703 -0.051018
H   0.000000 -0.011149  0.877291
2
Frame 1218   E = -75.33234249 Ha
O  -0.000000  0.000776 -0.051463
H   0.000000 -0.012314  0.884347
2
Frame 1219   E = -75.33230386 Ha
O  -0.000000  0.000853 -0.051910
H   0.000000 -0.013542  0.891445
2
Frame 1220   E = -75.33214742 Ha
O  -0.000000  0.000935 -0.052343
H   0.000000 -0.014835  0.898325
2
Frame 1221   E = -75.33190127 Ha
O  -0.000000  0.001020 -0.052748
H   0.000000 -0.016192  0.904749
2
Frame 1222   E = -75.33160286 Ha
O  -0.000000  0.001110 -0.053111
H   0.000000 -0.017612  0.910505
2
Frame 1223   E = -75.33129330 Ha
O  -0.000000  0.001203 -0.053420
H   0.000000 -0.019093  0.915413
2
Frame 1224   E = -75.33101226 Ha
O  -0.000000  0.001300 -0.053666
H   0.000000 -0.020633  0.919325
2
Frame 1225   E = -75.33079389 Ha
O  -0.000000  0.001401 -0.053843
H   0.000000 -0.022231  0.922127
2
Frame 1226   E = -75.33066381 Ha
O  -0.000000  0.001505 -0.053945
H   0.000000 -0.023883  0.923740
2
Frame 1227   E = -75.33063720 Ha
O  -0.000000  0.001612 -0.053968
H   0.000000 -0.025589  0.924118
2
Frame 1228   E = -75.33071773 Ha
O  -0.000000  0.001723 -0.053914
H   0.000000 -0.027345  0.923252
2
Frame 1229   E = -75.33089733 Ha
O  -0.000000  0.001837 -0.053782
H   0.000000 -0.029149  0.921164
2
Frame 1230   E = -75.33115677 Ha
O  -0.000000  0.001953 -0.053577
H   0.000000 -0.031000  0.917913
2
Frame 1231   E = -75.33146706 Ha
O  -0.000000  0.002073 -0.053305
H   0.000000 -0.032896  0.913590
2
Frame 1232   E = -75.33179186 Ha
O  -0.000000  0.002195 -0.052973
H   0.000000 -0.034837  0.908321
2
Frame 1233   E = -75.33209076 Ha
O  -0.000000  0.002320 -0.052591
H   0.000000 -0.036825  0.902265
2
Frame 1234   E = -75.33232382 Ha
O  -0.000000  0.002449 -0.052172
H   0.000000 -0.038863  0.895613
2
Frame 1235   E = -75.33245681 Ha
O  -0.000000  0.002580 -0.051730
H   0.000000 -0.040954  0.888585
2
Frame 1236   E = -75.33246694 Ha
O  -0.000000  0.002716 -0.051279
H   0.000000 -0.043106  0.881427
2
Frame 1237   E = -75.33234810 Ha
O  -0.000000  0.002856 -0.050836
H   0.000000 -0.045328  0.874400
2
Frame 1238   E = -75.33211439 Ha
O  -0.000000  0.003001 -0.050418
H   0.000000 -0.047629  0.867776
2
Frame 1239   E = -75.33180060 Ha
O  -0.000000  0.003152 -0.050043
H   0.000000 -0.050024  0.861823
2
Frame 1240   E = -75.33145848 Ha
O  -0.000000  0.003310 -0.049726
H   0.000000 -0.052525  0.856793
2
Frame 1241   E = -75.33114863 Ha
O  -0.000000  0.003475 -0.049481
H   0.000000 -0.055146  0.852904
2
Frame 1242   E = -75.33092913 Ha
O  -0.000000  0.003648 -0.049319
H   0.000000 -0.057901  0.850331
2
Frame 1243   E = -75.33084327 Ha
O  -0.000000  0.003831 -0.049247
H   0.000000 -0.060801  0.849186
2
Frame 1244   E = -75.33090986 Ha
O  -0.000000  0.004023 -0.049268
H   0.000000 -0.063853  0.849517
2
Frame 1245   E = -75.33111883 Ha
O  -0.000000  0.004225 -0.049380
H   0.000000 -0.067062  0.851298
2
Frame 1246   E = -75.33143359 Ha
O  -0.000000  0.004437 -0.049578
H   0.000000 -0.070425  0.854434
2
Frame 1247   E = -75.33179946 Ha
O  -0.000000  0.004659 -0.049851
H   0.000000 -0.073937  0.858768
2
Frame 1248   E = -75.33215542 Ha
O  -0.000000  0.004889 -0.050186
H   0.000000 -0.077587  0.864093
2
Frame 1249   E = -75.33244604 Ha
O  -0.000000  0.005126 -0.050569
H   0.000000 -0.081359  0.870167
2
Frame 1250   E = -75.33263075 Ha
O  -0.000000  0.005371 -0.050982
H   0.000000 -0.085235  0.876727
2
Frame 1251   E = -75.33268881 Ha
O  -0.000000  0.005620 -0.051409
H   0.000000 -0.089193  0.883501
2
Frame 1252   E = -75.33262008 Ha
O  -0.000000  0.005873 -0.051833
H   0.000000 -0.093212  0.890224
2
Frame 1253   E = -75.33244226 Ha
O  -0.000000  0.006129 -0.052238
H   0.000000 -0.097268  0.896649
2
Frame 1254   E = -75.33218607 Ha
O  -0.000000  0.006385 -0.052609
H   0.000000 -0.101340  0.902547
2
Frame 1255   E = -75.33188966 Ha
O  -0.000000  0.006642 -0.052935
H   0.000000 -0.105406  0.907721
2
Frame 1256   E = -75.33159322 Ha
O  -0.000000  0.006896 -0.053205
H   0.000000 -0.109447  0.912002
2
Frame 1257   E = -75.33133431 Ha
O  -0.000000  0.007148 -0.053410
H   0.000000 -0.113444  0.915256
2
Frame 1258   E = -75.33114431 Ha
O  -0.000000  0.007396 -0.053544
H   0.000000 -0.117384  0.917379
2
Frame 1259   E = -75.33104578 Ha
O  -0.000000  0.007640 -0.053602
H   0.000000 -0.121254  0.918303
2
Frame 1260   E = -75.33105095 Ha
O  -0.000000  0.007879 -0.053582
H   0.000000 -0.125045  0.917992
2
Frame 1261   E = -75.33116086 Ha
O  -0.000000  0.008112 -0.053485
H   0.000000 -0.128751  0.916444
2
Frame 1262   E = -75.33136536 Ha
O  -0.000000  0.008341 -0.053311
H   0.000000 -0.132371  0.913689
2
Frame 1263   E = -75.33164389 Ha
O  -0.000000  0.008563 -0.053066
H   0.000000 -0.135907  0.909789
2
Frame 1264   E = -75.33196691 Ha
O  -0.000000  0.008781 -0.052754
H   0.000000 -0.139367  0.904840
2
Frame 1265   E = -75.33229840 Ha
O  -0.000000  0.008995 -0.052384
H   0.000000 -0.142764  0.898971
2
Frame 1266   E = -75.33259915 Ha
O  -0.000000  0.009207 -0.051966
H   0.000000 -0.146114  0.892340
2
Frame 1267   E = -75.33283114 Ha
O  -0.000000  0.009416 -0.051512
H   0.000000 -0.149443  0.885137
2
Frame 1268   E = -75.33296264 Ha
O  -0.000000  0.009627 -0.051036
H   0.000000 -0.152781  0.877578
2
Frame 1269   E = -75.33297356 Ha
O  -0.000000  0.009840 -0.050552
H   0.000000 -0.156164  0.869901
2
Frame 1270   E = -75.33286023 Ha
O  -0.000000  0.010058 -0.050077
H   0.000000 -0.159632  0.862360
2
Frame 1271   E = -75.33263844 Ha
O  -0.000000  0.010285 -0.049627
H   0.000000 -0.163233  0.855217
2
Frame 1272   E = -75.33234340 Ha
O  -0.000000  0.010523 -0.049218
H   0.000000 -0.167014  0.848725
2
Frame 1273   E = -75.33202575 Ha
O  -0.000000  0.010776 -0.048865
H   0.000000 -0.171022  0.843122
2
Frame 1274   E = -75.33174357 Ha
O  -0.000000  0.011046 -0.048581
H   0.000000 -0.175302  0.838615
2
Frame 1275   E = -75.33155142 Ha
O  -0.000000  0.011335 -0.048376
H   0.000000 -0.179892  0.835361
2
Frame 1276   E = -75.33148893 Ha
O  -0.000000  0.011645 -0.048256
H   0.000000 -0.184822  0.833463
2
Frame 1277   E = -75.33157202 Ha
O  -0.000000  0.011979 -0.048225
H   0.000000 -0.190108  0.832958
2
Frame 1278   E = -75.33178925 Ha
O  -0.000000  0.012334 -0.048279
H   0.000000 -0.195752  0.833817
2
Frame 1279   E = -75.33210448 Ha
O  -0.000000  0.012711 -0.048413
H   0.000000 -0.201741  0.835943
2
Frame 1280   E = -75.33246500 Ha
O  -0.000000  0.013109 -0.048617
H   0.000000 -0.208048  0.839184
2
Frame 1281   E = -75.33281271 Ha
O  -0.000000  0.013524 -0.048879
H   0.000000 -0.214633  0.843341
2
Frame 1282   E = -75.33309519 Ha
O  -0.000000  0.013953 -0.049184
H   0.000000 -0.221446  0.848182
2
Frame 1283   E = -75.33327427 Ha
O  -0.000000  0.014393 -0.049516
H   0.000000 -0.228428  0.853456
2
Frame 1284   E = -75.33333058 Ha
O  -0.000000  0.014840 -0.049860
H   0.000000 -0.235516  0.858908
2
Frame 1285   E = -75.33326420 Ha
O  -0.000000  0.015289 -0.050199
H   0.000000 -0.242646  0.864288
2
Frame 1286   E = -75.33309200 Ha
O  -0.000000  0.015737 -0.050518
H   0.000000 -0.249754  0.869362
2
Frame 1287   E = -75.33284318 Ha
O  -0.000000  0.016179 -0.050805
H   0.000000 -0.256779  0.873916
2
Frame 1288   E = -75.33255404 Ha
O  -0.000000  0.016613 -0.051048
H   0.000000 -0.263667  0.877765
2
Frame 1289   E = -75.33226297 Ha
O  -0.000000  0.017036 -0.051236
H   0.000000 -0.270367  0.880750
2
Frame 1290   E = -75.33200605 Ha
O  -0.000000  0.017443 -0.051362
H   0.000000 -0.276835  0.882745
2
Frame 1291   E = -75.33181378 Ha
O  -0.000000  0.017834 -0.051419
H   0.000000 -0.283036  0.883652
2
Frame 1292   E = -75.33170857 Ha
O  -0.000000  0.018206 -0.051403
H   0.000000 -0.288943  0.883406
2
Frame 1293   E = -75.33170330 Ha
O  -0.000000  0.018558 -0.051313
H   0.000000 -0.294536  0.881971
2
Frame 1294   E = -75.33180048 Ha
O  -0.000000  0.018890 -0.051147
H   0.000000 -0.299804  0.879344
2
Frame 1295   E = -75.33199217 Ha
O  -0.000000  0.019202 -0.050908
H   0.000000 -0.304748  0.875548
2
Frame 1296   E = -75.33226057 Ha
O  -0.000000  0.019494 -0.050599
H   0.000000 -0.309377  0.870638
2
Frame 1297   E = -75.33257926 Ha
O  -0.000000  0.019767 -0.050224
H   0.000000 -0.313710  0.864698
2
Frame 1298   E = -75.33291518 Ha
O  -0.000000  0.020023 -0.049792
H   0.000000 -0.317778  0.857841
2
Frame 1299   E = -75.33323157 Ha
O  -0.000000  0.020265 -0.049311
H   0.000000 -0.321625  0.850208
2
Frame 1300   E = -75.33349168 Ha
O  -0.000000  0.020497 -0.048792
H   0.000000 -0.325303  0.841966
2
Frame 1301   E = -75.33366330 Ha
O  -0.000000  0.020723 -0.048247
H   0.000000 -0.328881  0.833309
2
Frame 1302   E = -75.33372369 Ha
O  -0.000000  0.020946 -0.047688
H   0.000000 -0.332436  0.824448
2
Frame 1303   E = -75.33366422 Ha
O  -0.000000  0.021174 -0.047132
H   0.000000 -0.336053  0.815612
2
Frame 1304   E = -75.33349369 Ha
O  -0.000000  0.021412 -0.046591
H   0.000000 -0.339829  0.807036
2
Frame 1305   E = -75.33323938 Ha
O  -0.000000  0.021666 -0.046082
H   0.000000 -0.343859  0.798953
2
Frame 1306   E = -75.33294452 Ha
O  -0.000000  0.021942 -0.045617
H   0.000000 -0.348242  0.791582
2
Frame 1307   E = -75.33266218 Ha
O  -0.000000  0.022246 -0.045210
H   0.000000 -0.353066  0.785118
2
Frame 1308   E = -75.33244586 Ha
O  -0.000000  0.022583 -0.044870
H   0.000000 -0.358411  0.779718
2
Frame 1309   E = -75.33233895 Ha
O  -0.000000  0.022956 -0.044604
H   0.000000 -0.364334  0.775490
2
Frame 1310   E = -75.33236538 Ha
O  -0.000000  0.023368 -0.044414
H   0.000000 -0.370872  0.772486
2
Frame 1311   E = -75.33252433 Ha
O  -0.000000  0.023820 -0.044302
H   0.000000 -0.378033  0.770700
2
Frame 1312   E = -75.33279042 Ha
O  -0.000000  0.024309 -0.044262
H   0.000000 -0.385798  0.770066
2
Frame 1313   E = -75.33311941 Ha
O  -0.000000  0.024833 -0.044287
H   0.000000 -0.394120  0.770467
2
Frame 1314   E = -75.33345764 Ha
O  -0.000000  0.025388 -0.044367
H   0.000000 -0.402927  0.771738
2
Frame 1315   E = -75.33375254 Ha
O  -0.000000  0.025968 -0.044490
H   0.000000 -0.412127  0.773686
2
Frame 1316   E = -75.33396177 Ha
O  -0.000000  0.026565 -0.044642
H   0.000000 -0.421614  0.776094
2
Frame 1317   E = -75.33405906 Ha
O  -0.000000  0.027174 -0.044808
H   0.000000 -0.431270  0.778739
2
Frame 1318   E = -75.33403634 Ha
O  -0.000000  0.027786 -0.044976
H   0.000000 -0.440977  0.781399
2
Frame 1319   E = -75.33390261 Ha
O  -0.000000  0.028393 -0.045131
H   0.000000 -0.450617  0.783863
2
Frame 1320   E = -75.33368050 Ha
O  -0.000000  0.028989 -0.045262
H   0.000000 -0.460076  0.785937
2
Frame 1321   E = -75.33340165 Ha
O  -0.000000  0.029567 -0.045357
H   0.000000 -0.469252  0.787450
2
Frame 1322   E = -75.33310196 Ha
O  -0.000000  0.030121 -0.045408
H   0.000000 -0.478049  0.788255
2
Frame 1323   E = -75.33281723 Ha
O  -0.000000  0.030647 -0.045406
H   0.000000 -0.486389  0.788230
2
Frame 1324   E = -75.33257963 Ha
O  -0.000000  0.031139 -0.045346
H   0.000000 -0.494202  0.787280
2
Frame 1325   E = -75.33241501 Ha
O  -0.000000  0.031595 -0.045224
H   0.000000 -0.501436  0.785339
2
Frame 1326   E = -75.33234110 Ha
O  -0.000000  0.032012 -0.045037
H   0.000000 -0.508053  0.782364
2
Frame 1327   E = -75.33236635 Ha
O  -0.000000  0.032389 -0.044783
H   0.000000 -0.514030  0.778338
2
Frame 1328   E = -75.33248949 Ha
O  -0.000000  0.032724 -0.044464
H   0.000000 -0.519359  0.773270
2
Frame 1329   E = -75.33269966 Ha
O  -0.000000  0.033020 -0.044081
H   0.000000 -0.524049  0.767195
2
Frame 1330   E = -75.33297707 Ha
O  -0.000000  0.033277 -0.043638
H   0.000000 -0.528128  0.760170
2
Frame 1331   E = -75.33329437 Ha
O  -0.000000  0.033498 -0.043141
H   0.000000 -0.531638  0.752277
2
Frame 1332   E = -75.33361866 Ha
O  -0.000000  0.033687 -0.042595
H   0.000000 -0.534642  0.743621
2
Frame 1333   E = -75.33391441 Ha
O  -0.000000  0.033850 -0.042010
H   0.000000 -0.537219  0.734330
2
Frame 1334   E = -75.33414709 Ha
O  -0.000000  0.033991 -0.041394
H   0.000000 -0.539469  0.724552
2
Frame 1335   E = -75.33428752 Ha
O  -0.000000  0.034120 -0.040758
H   0.000000 -0.541507  0.714455
2
Frame 1336   E = -75.33431650 Ha
O  -0.000000  0.034243 -0.040113
H   0.000000 -0.543465  0.704220
2
Frame 1337   E = -75.33422896 Ha
O  -0.000000  0.034371 -0.039471
H   0.000000 -0.545486  0.694039
2
Frame 1338   E = -75.33403679 Ha
O  -0.000000  0.034512 -0.038846
H   0.000000 -0.547725  0.684107
2
Frame 1339   E = -75.33376916 Ha
O  -0.000000  0.034676 -0.038247
H   0.000000 -0.550334  0.674614
2
Frame 1340   E = -75.33346965 Ha
O  -0.000000  0.034873 -0.037688
H   0.000000 -0.553462  0.665735
2
Frame 1341   E = -75.33318974 Ha
O  -0.000000  0.035111 -0.037177
H   0.000000 -0.557245  0.657622
2
Frame 1342   E = -75.33297976 Ha
O  -0.000000  0.035398 -0.036721
H   0.000000 -0.561793  0.650395
2
Frame 1343   E = -75.33287879 Ha
O  -0.000000  0.035738 -0.036327
H   0.000000 -0.567188  0.644130
2
Frame 1344   E = -75.33290644 Ha
O  -0.000000  0.036134 -0.035995
H   0.000000 -0.573473  0.638858
2
Frame 1345   E = -75.33305842 Ha
O  -0.000000  0.036586 -0.035724
H   0.000000 -0.580648  0.634565
2
Frame 1346   E = -75.33330755 Ha
O  -0.000000  0.037092 -0.035511
H   0.000000 -0.588673  0.631188
2
Frame 1347   E = -75.33360972 Ha
O  -0.000000  0.037646 -0.035350
H   0.000000 -0.597465  0.628624
2
Frame 1348   E = -75.33391307 Ha
O  -0.000000  0.038241 -0.035231
H   0.000000 -0.606910  0.626738
2
Frame 1349   E = -75.33416800 Ha
O  -0.000000  0.038868 -0.035145
H   0.000000 -0.616863  0.625370
2
Frame 1350   E = -75.33433542 Ha
O  -0.000000  0.039517 -0.035080
H   0.000000 -0.627161  0.624351
2
Frame 1351   E = -75.33439203 Ha
O  -0.000000  0.040177 -0.035027
H   0.000000 -0.637632  0.623502
2
Frame 1352   E = -75.33433198 Ha
O  -0.000000  0.040836 -0.034973
H   0.000000 -0.648100  0.622654
2
Frame 1353   E = -75.33416559 Ha
O  -0.000000  0.041485 -0.034910
H   0.000000 -0.658393  0.621645
2
Frame 1354   E = -75.33391589 Ha
O  -0.000000  0.042112 -0.034827
H   0.000000 -0.668352  0.620328
2
Frame 1355   E = -75.33361424 Ha
O  -0.000000  0.042709 -0.034717
H   0.000000 -0.677829  0.618577
2
Frame 1356   E = -75.33329580 Ha
O  -0.000000  0.043268 -0.034572
H   0.000000 -0.686695  0.616282
2
Frame 1357   E = -75.33299538 Ha
O  -0.000000  0.043781 -0.034388
H   0.000000 -0.694838  0.613357
2
Frame 1358   E = -75.33274410 Ha
O  -0.000000  0.044243 -0.034159
H   0.000000 -0.702169  0.609735
2
Frame 1359   E = -75.33256685 Ha
O  -0.000000  0.044649 -0.033884
H   0.000000 -0.708618  0.605371
2
Frame 1360   E = -75.33248051 Ha
O  -0.000000  0.044997 -0.033561
H   0.000000 -0.714138  0.600238
2
Frame 1361   E = -75.33249288 Ha
O  -0.000000  0.045285 -0.033189
H   0.000000 -0.718703  0.594330
2
Frame 1362   E = -75.33260218 Ha
O  -0.000000  0.045512 -0.032769
H   0.000000 -0.722311  0.587660
2
Frame 1363   E = -75.33279718 Ha
O  -0.000000  0.045680 -0.032302
H   0.000000 -0.724980  0.580257
2
Frame 1364   E = -75.33305781 Ha
O  -0.000000  0.045792 -0.031793
H   0.000000 -0.726756  0.572170
2
Frame 1365   E = -75.33335649 Ha
O  -0.000000  0.045852 -0.031244
H   0.000000 -0.727706  0.563465
2
Frame 1366   E = -75.33366013 Ha
O  -0.000000  0.045866 -0.030662
H   0.000000 -0.727921  0.554224
2
Frame 1367   E = -75.33393306 Ha
O  -0.000000  0.045840 -0.030052
H   0.000000 -0.727519  0.544545
2
Frame 1368   E = -75.33414065 Ha
O  -0.000000  0.045785 -0.029422
H   0.000000 -0.726640  0.534542
2
Frame 1369   E = -75.33425380 Ha
O  -0.000000  0.045710 -0.028779
H   0.000000 -0.725447  0.524338
2
Frame 1370   E = -75.33425350 Ha
O  -0.000000  0.045626 -0.028132
H   0.000000 -0.724122  0.514069
2
Frame 1371   E = -75.33413520 Ha
O  -0.000000  0.045547 -0.027489
H   0.000000 -0.722863  0.503875
2
Frame 1372   E = -75.33391158 Ha
O  -0.000000  0.045485 -0.026861
H   0.000000 -0.721875  0.493898
2
Frame 1373   E = -75.33361290 Ha
O  -0.000000  0.045453 -0.026254
H   0.000000 -0.721366  0.484273
2
Frame 1374   E = -75.33328393 Ha
O  -0.000000  0.045463 -0.025678
H   0.000000 -0.721532  0.475125
2
Frame 1375   E = -75.33297733 Ha
O  -0.000000  0.045527 -0.025138
H   0.000000 -0.722547  0.466559
2
Frame 1376   E = -75.33274419 Ha
O  -0.000000  0.045654 -0.024640
H   0.000000 -0.724554  0.458656
2
Frame 1377   E = -75.33262388 Ha
O  -0.000000  0.045849 -0.024187
H   0.000000 -0.727654  0.451465
2
Frame 1378   E = -75.33263549 Ha
O  -0.000000  0.046116 -0.023780
H   0.000000 -0.731894  0.445003
2
Frame 1379   E = -75.33277363 Ha
O  -0.000000  0.046455 -0.023418
H   0.000000 -0.737269  0.439254
2
Frame 1380   E = -75.33300958 Ha
O  -0.000000  0.046861 -0.023097
H   0.000000 -0.743718  0.434169
2
Frame 1381   E = -75.33329762 Ha
O  -0.000000  0.047328 -0.022814
H   0.000000 -0.751130  0.429672
2
Frame 1382   E = -75.33358461 Ha
O  -0.000000  0.047846 -0.022561
H   0.000000 -0.759348  0.425667
2
Frame 1383   E = -75.33382020 Ha
O  -0.000000  0.048403 -0.022333
H   0.000000 -0.768186  0.422042
2
Frame 1384   E = -75.33396532 Ha
O  -0.000000  0.048985 -0.022121
H   0.000000 -0.777433  0.418679
2
Frame 1385   E = -75.33399732 Ha
O  -0.000000  0.049580 -0.021918
H   0.000000 -0.786868  0.415459
2
Frame 1386   E = -75.33391158 Ha
O  -0.000000  0.050172 -0.021717
H   0.000000 -0.796272  0.412268
2
Frame 1387   E = -75.33371992 Ha
O  -0.000000  0.050749 -0.021511
H   0.000000 -0.805431  0.409001
2
Frame 1388   E = -75.33344699 Ha
O  -0.000000  0.051299 -0.021295
H   0.000000 -0.814147  0.405563
2
Frame 1389   E = -75.33312565 Ha
O  -0.000000  0.051809 -0.021062
H   0.000000 -0.822242  0.401874
2
Frame 1390   E = -75.33279225 Ha
O  -0.000000  0.052270 -0.020810
H   0.000000 -0.829562  0.397868
2
Frame 1391   E = -75.33248236 Ha
O  -0.000000  0.052674 -0.020534
H   0.000000 -0.835975  0.393494
2
Frame 1392   E = -75.33222736 Ha
O  -0.000000  0.053015 -0.020233
H   0.000000 -0.841380  0.388713
2
Frame 1393   E = -75.33205177 Ha
O  -0.000000  0.053287 -0.019905
H   0.000000 -0.845700  0.383501
2
Frame 1394   E = -75.33197149 Ha
O  -0.000000  0.053488 -0.019548
H   0.000000 -0.848886  0.377847
2
Frame 1395   E = -75.33199271 Ha
O  -0.000000  0.053616 -0.019164
H   0.000000 -0.850918  0.371754
2
Frame 1396   E = -75.33211145 Ha
O  -0.000000  0.053671 -0.018754
H   0.000000 -0.851804  0.365233
2
Frame 1397   E = -75.33231378 Ha
O  -0.000000  0.053657 -0.018317
H   0.000000 -0.851581  0.358310
2
Frame 1398   E = -75.33257663 Ha
O  -0.000000  0.053577 -0.017858
H   0.000000 -0.850312  0.351021
2
Frame 1399   E = -75.33286936 Ha
O  -0.000000  0.053438 -0.017379
H   0.000000 -0.848094  0.343412
2
Frame 1400   E = -75.33315619 Ha
O  -0.000000  0.053246 -0.016882
H   0.000000 -0.845050  0.335537
2
Frame 1401   E = -75.33339958 Ha
O  -0.000000  0.053012 -0.016374
H   0.000000 -0.841333  0.327463
2
Frame 1402   E = -75.33356444 Ha
O  -0.000000  0.052746 -0.015857
H   0.000000 -0.837124  0.319261
2
Frame 1403   E = -75.33362308 Ha
O  -0.000000  0.052463 -0.015337
H   0.000000 -0.832628  0.311010
2
Frame 1404   E = -75.33356024 Ha
O  -0.000000  0.052176 -0.014819
H   0.000000 -0.828073  0.302795
2
Frame 1405   E = -75.33337732 Ha
O  -0.000000  0.051900 -0.014309
H   0.000000 -0.823698  0.294698
2
Frame 1406   E = -75.33309466 Ha
O  -0.000000  0.051652 -0.013812
H   0.000000 -0.819749  0.286803
2
Frame 1407   E = -75.33275073 Ha
O  -0.000000  0.051445 -0.013332
H   0.000000 -0.816468  0.279188
2
Frame 1408   E = -75.33239737 Ha
O  -0.000000  0.051294 -0.012874
H   0.000000 -0.814075  0.271919
2
Frame 1409   E = -75.33209129 Ha
O  -0.000000  0.051211 -0.012441
H   0.000000 -0.812761  0.265050
2
Frame 1410   E = -75.33188324 Ha
O  -0.000000  0.051206 -0.012036
H   0.000000 -0.812670  0.258618
2
Frame 1411   E = -75.33180729 Ha
O  -0.000000  0.051283 -0.011659
H   0.000000 -0.813894  0.252640
2
Frame 1412   E = -75.33187322 Ha
O  -0.000000  0.051444 -0.011311
H   0.000000 -0.816458  0.247116
2
Frame 1413   E = -75.33206422 Ha
O  -0.000000  0.051688 -0.010990
H   0.000000 -0.820324  0.242023
2
Frame 1414   E = -75.33234073 Ha
O  -0.000000  0.052007 -0.010694
H   0.000000 -0.825392  0.237324
2
Frame 1415   E = -75.33264912 Ha
O  -0.000000  0.052392 -0.010420
H   0.000000 -0.831506  0.232968
2
Frame 1416   E = -75.33293283 Ha
O  -0.000000  0.052831 -0.010163
H   0.000000 -0.838467  0.228895
2
Frame 1417   E = -75.33314280 Ha
O  -0.000000  0.053308 -0.009920
H   0.000000 -0.846043  0.225041
2
Frame 1418   E = -75.33324524 Ha
O  -0.000000  0.053809 -0.009687
H   0.000000 -0.853988  0.221338
2
Frame 1419   E = -75.33322529 Ha
O  -0.000000  0.054317 -0.009459
H   0.000000 -0.862049  0.217725
2
Frame 1420   E = -75.33308697 Ha
O  -0.000000  0.054817 -0.009234
H   0.000000 -0.869978  0.214143
2
Frame 1421   E = -75.33285026 Ha
O  -0.000000  0.055293 -0.009007
H   0.000000 -0.877544  0.210540
2
Frame 1422   E = -75.33254639 Ha
O  -0.000000  0.055734 -0.008776
H   0.000000 -0.884537  0.206873
2
Frame 1423   E = -75.33221266 Ha
O  -0.000000  0.056127 -0.008538
H   0.000000 -0.890772  0.203106
2
Frame 1424   E = -75.33188753 Ha
O  -0.000000  0.056462 -0.008293
H   0.000000 -0.896093  0.199212
2
Frame 1425   E = -75.33160637 Ha
O  -0.000000  0.056732 -0.008038
H   0.000000 -0.900374  0.195170
2
Frame 1426   E = -75.33139825 Ha
O  -0.000000  0.056930 -0.007773
H   0.000000 -0.903522  0.190968
2
Frame 1427   E = -75.33128353 Ha
O  -0.000000  0.057053 -0.007498
H   0.000000 -0.905473  0.186601
2
Frame 1428   E = -75.33127243 Ha
O  -0.000000  0.057099 -0.007213
H   0.000000 -0.906198  0.182070
2
Frame 1429   E = -75.33136430 Ha
O  -0.000000  0.057067 -0.006917
H   0.000000 -0.905696  0.177381
2
Frame 1430   E = -75.33154755 Ha
O  -0.000000  0.056960 -0.006613
H   0.000000 -0.904002  0.172547
2
Frame 1431   E = -75.33180041 Ha
O  -0.000000  0.056783 -0.006300
H   0.000000 -0.901180  0.167584
2
Frame 1432   E = -75.33209244 Ha
O  -0.000000  0.056540 -0.005981
H   0.000000 -0.897330  0.162515
2
Frame 1433   E = -75.33238692 Ha
O  -0.000000  0.056241 -0.005656
H   0.000000 -0.892581  0.157364
2
Frame 1434   E = -75.33264435 Ha
O  -0.000000  0.055895 -0.005328
H   0.000000 -0.887097  0.152163
2
Frame 1435   E = -75.33282683 Ha
O  -0.000000  0.055515 -0.004999
H   0.000000 -0.881070  0.146942
2
Frame 1436   E = -75.33290334 Ha
O  -0.000000  0.055115 -0.004671
H   0.000000 -0.874721  0.141738
2
Frame 1437   E = -75.33285523 Ha
O  -0.000000  0.054710 -0.004347
H   0.000000 -0.868293  0.136588
2
Frame 1438   E = -75.33268103 Ha
O  -0.000000  0.054317 -0.004028
H   0.000000 -0.862047  0.131526
2
Frame 1439   E = -75.33239931 Ha
O  -0.000000  0.053951 -0.003717
H   0.000000 -0.856249  0.126589
2
Frame 1440   E = -75.33204841 Ha
O  -0.000000  0.053631 -0.003416
H   0.000000 -0.851159  0.121808
2
Frame 1441   E = -75.33168185 Ha
O  -0.000000  0.053370 -0.003126
H   0.000000 -0.847020  0.117210
2
Frame 1442   E = -75.33135966 Ha
O  -0.000000  0.053182 -0.002849
H   0.000000 -0.844040  0.112817
2
Frame 1443   E = -75.33113684 Ha
O  -0.000000  0.053078 -0.002586
H   0.000000 -0.842380  0.108642
2
Frame 1444   E = -75.33105166 Ha
O  -0.000000  0.053062 -0.002337
H   0.000000 -0.842139  0.104690
2
Frame 1445   E = -75.33111695 Ha
O  -0.000000  0.053139 -0.002102
H   0.000000 -0.843351  0.100958
2
Frame 1446   E = -75.33131712 Ha
O  -0.000000  0.053304 -0.001880
H   0.000000 -0.845978  0.097436
2
Frame 1447   E = -75.33161176 Ha
O  -0.000000  0.053552 -0.001670
H   0.000000 -0.849915  0.094106
2
Frame 1448   E = -75.33194471 Ha
O  -0.000000  0.053873 -0.001471
H   0.000000 -0.854996  0.090948
2
Frame 1449   E = -75.33225594 Ha
O  -0.000000  0.054251 -0.001281
H   0.000000 -0.861011  0.087937
2
Frame 1450   E = -75.33249299 Ha
O  -0.000000  0.054674 -0.001099
H   0.000000 -0.867713  0.085048
2
Frame 1451   E = -75.33261937 Ha
O  -0.000000  0.055123 -0.000924
H   0.000000 -0.874839  0.082258
2
Frame 1452   E = -75.33261871 Ha
O  -0.000000  0.055582 -0.000753
H   0.000000 -0.882120  0.079545
2
Frame 1453   E = -75.33249479 Ha
O  -0.000000  0.056034 -0.000585
H   0.000000 -0.889295  0.076889
2
Frame 1454   E = -75.33226834 Ha
O  -0.000000  0.056464 -0.000421
H   0.000000 -0.896119  0.074274
2
Frame 1455   E = -75.33197208 Ha
O  -0.000000  0.056858 -0.000258
H   0.000000 -0.902371  0.071688
2
Frame 1456   E = -75.33164508 Ha
O  -0.000000  0.057203 -0.000096
H   0.000000 -0.907857  0.069121
2
Frame 1457   E = -75.33132750 Ha
O  -0.000000  0.057491  0.000065
H   0.000000 -0.912416  0.066567
2
Frame 1458   E = -75.33105607 Ha
O  -0.000000  0.057711  0.000225
H   0.000000 -0.915918  0.064022
2
Frame 1459   E = -75.33086065 Ha
O  -0.000000  0.057859  0.000385
H   0.000000 -0.918266  0.061485
2
Frame 1460   E = -75.33076177 Ha
O  -0.000000  0.057931  0.000545
H   0.000000 -0.919399  0.058957
2
Frame 1461   E = -75.33076908 Ha
O  -0.000000  0.057924  0.000703
H   0.000000 -0.919289  0.056440
2
Frame 1462   E = -75.33088070 Ha
O  -0.000000  0.057839  0.000861
H   0.000000 -0.917941  0.053938
2
Frame 1463   E = -75.33108328 Ha
O  -0.000000  0.057678  0.001017
H   0.000000 -0.915394  0.051454
2
Frame 1464   E = -75.33135291 Ha
O  -0.000000  0.057447  0.001172
H   0.000000 -0.911722  0.048995
2
Frame 1465   E = -75.33165688 Ha
O  -0.000000  0.057151  0.001325
H   0.000000 -0.907033  0.046567
2
Frame 1466   E = -75.33195644 Ha
O  -0.000000  0.056801  0.001476
H   0.000000 -0.901467  0.044176
2
Frame 1467   E = -75.33221069 Ha
O  -0.000000  0.056406  0.001624
H   0.000000 -0.895201  0.041830
2
Frame 1468   E = -75.33238137 Ha
O  -0.000000  0.055980  0.001768
H   0.000000 -0.888438  0.039535
2
Frame 1469   E = -75.33243859 Ha
O  -0.000000  0.055537  0.001909
H   0.000000 -0.881412  0.037298
2
Frame 1470   E = -75.33236643 Ha
O  -0.000000  0.055094  0.002046
H   0.000000 -0.874379  0.035125
2
Frame 1471   E = -75.33216774 Ha
O  -0.000000  0.054667  0.002179
H   0.000000 -0.867608  0.033023
2
Frame 1472   E = -75.33186651 Ha
O  -0.000000  0.054274  0.002306
H   0.000000 -0.861373  0.030996
2
Frame 1473   E = -75.33150656 Ha
O  -0.000000  0.053932  0.002429
H   0.000000 -0.855940  0.029048
2
Frame 1474   E = -75.33114575 Ha
O  -0.000000  0.053655  0.002547
H   0.000000 -0.851549  0.027183
2
Frame 1475   E = -75.33084597 Ha
O  -0.000000  0.053457  0.002659
H   0.000000 -0.848404  0.025399
2
Frame 1476   E = -75.33066081 Ha
O  -0.000000  0.053347  0.002766
H   0.000000 -0.846653  0.023698
2
Frame 1477   E = -75.33062378 Ha
O  -0.000000  0.053330  0.002868
H   0.000000 -0.846382  0.022078
2
Frame 1478   E = -75.33074057 Ha
O  -0.000000  0.053407  0.002965
H   0.000000 -0.847606  0.020536
2
Frame 1479   E = -75.33098767 Ha
O  -0.000000  0.053574  0.003058
H   0.000000 -0.850265  0.019068
2
Frame 1480   E = -75.33131790 Ha
O  -0.000000  0.053825  0.003146
H   0.000000 -0.854234  0.017671
2
Frame 1481   E = -75.33167098 Ha
O  -0.000000  0.054146  0.003230
H   0.000000 -0.859329  0.016343
2
Frame 1482   E = -75.33198607 Ha
O  -0.000000  0.054523  0.003309
H   0.000000 -0.865322  0.015080
2
Frame 1483   E = -75.33221302 Ha
O  -0.000000  0.054941  0.003385
H   0.000000 -0.871954  0.013882
2
Frame 1484   E = -75.33231990 Ha
O  -0.000000  0.055382  0.003456
H   0.000000 -0.878953  0.012747
2
Frame 1485   E = -75.33229601 Ha
O  -0.000000  0.055829  0.003524
H   0.000000 -0.886047  0.011676
2
Frame 1486   E = -75.33215075 Ha
O  -0.000000  0.056265  0.003587
H   0.000000 -0.892971  0.010671
2
Frame 1487   E = -75.33190964 Ha
O  -0.000000  0.056676  0.003646
H   0.000000 -0.899484  0.009732
2
Frame 1488   E = -75.33160874 Ha
O  -0.000000  0.057046  0.003701
H   0.000000 -0.905369  0.008864
2
Frame 1489   E = -75.33128891 Ha
O  -0.000000  0.057366  0.003751
H   0.000000 -0.910438  0.008069
2
Frame 1490   E = -75.33099052 Ha
O  -0.000000  0.057624  0.003796
H   0.000000 -0.914537  0.007349
2
Frame 1491   E = -75.33074915 Ha
O  -0.000000  0.057814  0.003837
H   0.000000 -0.917546  0.006706
2
Frame 1492   E = -75.33059234 Ha
O  -0.000000  0.057929  0.003872
H   0.000000 -0.919379  0.006144
2
Frame 1493   E = -75.33053740 Ha
O  -0.000000  0.057967  0.003903
H   0.000000 -0.919985  0.005663
2
Frame 1494   E = -75.33059021 Ha
O  -0.000000  0.057927  0.003928
H   0.000000 -0.919345  0.005264
2
Frame 1495   E = -75.33074475 Ha
O  -0.000000  0.057810  0.003948
H   0.000000 -0.917479  0.004948
2
Frame 1496   E = -75.33098353 Ha
O  -0.000000  0.057618  0.003962
H   0.000000 -0.914437  0.004713
2
Frame 1497   E = -75.33127885 Ha
O  -0.000000  0.057358  0.003972
H   0.000000 -0.910307  0.004560
2
Frame 1498   E = -75.33159500 Ha
O  -0.000000  0.057036  0.003977
H   0.000000 -0.905210  0.004486
2
Frame 1499   E = -75.33189148 Ha
O  -0.000000  0.056664  0.003977
H   0.000000 -0.899300  0.004488
